CONTCAR\(7)\(0\0\1)                     
   1.00000000000000     
     8.2045001983999999    0.0000000000000000    0.0000000000000000
    -4.1022500991999999    7.1053055971000001    0.0000000000000000
     0.0000000000000000    0.0000000000000000   26.4547004699999988
   N    Ru
     1    36
Selective dynamics
Direct
  0.5555654583644353  0.4444347243678824  0.2811172559853345   T   T   T
  0.1025425159073246  0.2179138999940864  0.2409165443051462   T   T   T
  0.4392398504369250  0.2116601225655365  0.2440855100707476   T   T   T
  0.7820729897307775  0.2179269407506524  0.2409080490987579   T   T   T
  0.1110814982867443  0.5554012476272016  0.2414305072815513   T   T   T
  0.4391413195468107  0.5608589042225300  0.2441118361087310   T   T   T
  0.7883400771959859  0.5607603076282586  0.2440854887571936   T   T   T
  0.1110148805680725  0.8889851090416659  0.2414400041708989   T   T   T
  0.4445984344261823  0.8889183340840549  0.2414305168863713   T   T   T
  0.7820860606300276  0.8974575577850488  0.2409165342194437   T   T   T
  0.2234318990177667  0.1116227165143891  0.1628377904722608   T   T   T
  0.5548812869632351  0.1116379003653062  0.1628118332716850   T   T   T
  0.8888952022180775  0.1111048653502945  0.1623376245085320   T   T   T
  0.2235098192952387  0.4452159261709202  0.1628222856929856   T   T   T
  0.5555707268192548  0.4444295819103764  0.1607124566178869   T   T   T
  0.8883619815337935  0.4451185628023526  0.1628118328066422   T   T   T
  0.2222467722865116  0.7777532476106243  0.1619208809060341   T   T   T
  0.5547839483599482  0.7764901747710856  0.1628222629306922   T   T   T
  0.8883773102218595  0.7765681363470265  0.1628377663073242   T   T   T
  0.1111100019999967  0.2222200040000004  0.0813300009999978   F   F   F
  0.4444400069999972  0.2222200040000004  0.0813300009999978   F   F   F
  0.7777799959999996  0.2222200040000004  0.0813300009999978   F   F   F
  0.1111100019999967  0.5555599930000028  0.0813300009999978   F   F   F
  0.4444400069999972  0.5555599930000028  0.0813300009999978   F   F   F
  0.7777799959999996  0.5555599930000028  0.0813300009999978   F   F   F
  0.1111100019999967  0.8888900279999987  0.0813300009999978   F   F   F
  0.4444400069999972  0.8888900279999987  0.0813300009999978   F   F   F
  0.7777799959999996  0.8888900279999987  0.0813300009999978   F   F   F
  0.2222200040000004  0.1111100019999967  0.0000000000000000   F   F   F
  0.5555599930000028  0.1111100019999967  0.0000000000000000   F   F   F
  0.8888900279999987  0.1111100019999967  0.0000000000000000   F   F   F
  0.2222200040000004  0.4444400069999972  0.0000000000000000   F   F   F
  0.5555599930000028  0.4444400069999972  0.0000000000000000   F   F   F
  0.8888900279999987  0.4444400069999972  0.0000000000000000   F   F   F
  0.2222200040000004  0.7777799959999996  0.0000000000000000   F   F   F
  0.5555599930000028  0.7777799959999996  0.0000000000000000   F   F   F
  0.8888900279999987  0.7777799959999996  0.0000000000000000   F   F   F
 
  0.00000000E+00  0.00000000E+00  0.00000000E+00
  0.00000000E+00  0.00000000E+00  0.00000000E+00
  0.00000000E+00  0.00000000E+00  0.00000000E+00
  0.00000000E+00  0.00000000E+00  0.00000000E+00
  0.00000000E+00  0.00000000E+00  0.00000000E+00
  0.00000000E+00  0.00000000E+00  0.00000000E+00
  0.00000000E+00  0.00000000E+00  0.00000000E+00
  0.00000000E+00  0.00000000E+00  0.00000000E+00
  0.00000000E+00  0.00000000E+00  0.00000000E+00
  0.00000000E+00  0.00000000E+00  0.00000000E+00
  0.00000000E+00  0.00000000E+00  0.00000000E+00
  0.00000000E+00  0.00000000E+00  0.00000000E+00
  0.00000000E+00  0.00000000E+00  0.00000000E+00
  0.00000000E+00  0.00000000E+00  0.00000000E+00
  0.00000000E+00  0.00000000E+00  0.00000000E+00
  0.00000000E+00  0.00000000E+00  0.00000000E+00
  0.00000000E+00  0.00000000E+00  0.00000000E+00
  0.00000000E+00  0.00000000E+00  0.00000000E+00
  0.00000000E+00  0.00000000E+00  0.00000000E+00
  0.00000000E+00  0.00000000E+00  0.00000000E+00
  0.00000000E+00  0.00000000E+00  0.00000000E+00
  0.00000000E+00  0.00000000E+00  0.00000000E+00
  0.00000000E+00  0.00000000E+00  0.00000000E+00
  0.00000000E+00  0.00000000E+00  0.00000000E+00
  0.00000000E+00  0.00000000E+00  0.00000000E+00
  0.00000000E+00  0.00000000E+00  0.00000000E+00
  0.00000000E+00  0.00000000E+00  0.00000000E+00
  0.00000000E+00  0.00000000E+00  0.00000000E+00
  0.00000000E+00  0.00000000E+00  0.00000000E+00
  0.00000000E+00  0.00000000E+00  0.00000000E+00
  0.00000000E+00  0.00000000E+00  0.00000000E+00
  0.00000000E+00  0.00000000E+00  0.00000000E+00
  0.00000000E+00  0.00000000E+00  0.00000000E+00
  0.00000000E+00  0.00000000E+00  0.00000000E+00
  0.00000000E+00  0.00000000E+00  0.00000000E+00
  0.00000000E+00  0.00000000E+00  0.00000000E+00
  0.00000000E+00  0.00000000E+00  0.00000000E+00
