 C  H 
 1.0000000000000000
    20.0000000000000000    0.0000000000000000    0.0000000000000000
     0.0000000000000000   20.0000000000000000    0.0000000000000000
     0.0000000000000000    0.0000000000000000   20.0000000000000000
   2   4
Cartesian
 10.0000000000000000 10.0000000000000000 10.6665050690396868
 10.0000000000000000 10.0000000000000000  9.3334949309603150
 10.0000000000000000 10.9287537897252207 11.2408057106880221
 10.0000000000000000  9.0712462102747811 11.2408057106880221
 10.0000000000000000 10.9287537897252207  8.7591942893119779
 10.0000000000000000  9.0712462102747811  8.7691942893119776
