Pt  C 
 1.0000000000000000
     8.4216417639317811    0.0000000000000000    0.0000000000000000
     4.2108208819658905    7.2933557091369128    0.0000000000000000
     0.0000000000000000    0.0000000000000000   21.8762417060484431
  36   1
Selective dynamics
Cartesian
  0.0000000000000000  0.0000000000000000  7.5000000000000533   F   F   F
  2.8072139213106135  0.0000000000000000  7.5000000000000533   F   F   F
  5.6144278426211676  0.0000000000000000  7.5000000000000533   F   F   F
  1.4036069606553068  2.4311185697123214  7.5000000000000533   F   F   F
  4.2108208819659207  2.4311185697123214  7.5000000000000533   F   F   F
  7.0180348032764748  2.4311185697123214  7.5000000000000533   F   F   F
  2.8072139213105838  4.8622371394245913  7.5000000000000533   F   F   F
  5.6144278426211969  4.8622371394245913  7.5000000000000533   F   F   F
  8.4216417639317509  4.8622371394245913  7.5000000000000533   F   F   F
  1.4036069606553370  0.8103728565707913  9.7920805686827794   F   F   F
  4.2108208819658914  0.8103728565707913  9.7920805686827794   F   F   F
  7.0180348032765041  0.8103728565707913  9.7920805686827794   F   F   F
  2.8072139213106144  3.2414914262830612  9.7920805686827794   F   F   F
  5.6144278426211685  3.2414914262830612  9.7920805686827794   F   F   F
  8.4216417639317811  3.2414914262830612  9.7920805686827794   F   F   F
  4.2108208819659207  5.6726099959953826  9.7920805686827794   F   F   F
  7.0180348032764748  5.6726099959953826  9.7920805686827794   F   F   F
  9.8252487245870874  5.6726099959953826  9.7920805686827794   F   F   F
  8.4082146931107804  1.6260127859763265 12.0779660548175567   T   T   T
  2.8183254891983407  1.6261161684620593 12.0786427529266369   T   T   T
  5.6131065344423243  1.6302942209213234 12.0866542158285668   T   T   T
  9.8239135263181243  4.0482965702666496 12.0501835832187041   T   T   T
  4.2191294984442340  4.0447538909382068 12.0867625315445419   T   T   T
  7.0068760385379667  4.0449238481150349 12.0861747199304226   T   T   T
 11.2288011821188967  6.4818975411720041 12.0507168291374800   T   T   T
  5.6132078688029319  6.4679218738548725 12.0779397983438059   T   T   T
  8.4186550308961650  6.4820606441687216 12.0502264222538074   T   T   T
 12.6226251856887366  7.2861086782622460 14.3624812756541669   T   T   T
  7.0221242504049339  7.2861379580074743 14.3621875880272061   T   T   T
  9.8225511980540361  7.2579828998948104 14.3472310235832907   T   T   T
  9.8230550741349898  2.4336484598664545 14.3611473771558966   T   T   T
  4.0920423114104469  2.3605227503125819 14.4955041773933733   T   T   T
  7.1324785435558580  2.3615225478151589 14.4930644316342487   T   T   T
 11.1984329428542768  4.8744516248831689 14.3469433013208256   T   T   T
  5.6124509771017568  4.9942562685721343 14.4925214382754266   T   T   T
  8.4480858240911161  4.8752166854282883 14.3468143128830476   T   T   T
  5.6125146857330783  3.2392021274048295 15.2193163842943822   T   T   T
