Pt  C  H 
 1.0000000000000000
     8.4216417639317811    0.0000000000000000    0.0000000000000000
     4.2108208819658905    7.2933557091369128    0.0000000000000000
     0.0000000000000000    0.0000000000000000   21.8762417060484431
  36   2   3
Selective dynamics
Cartesian
  0.0000000000000000  0.0000000000000000  7.5000000000000533   F   F   F
  2.8072139213106135  0.0000000000000000  7.5000000000000533   F   F   F
  5.6144278426211676  0.0000000000000000  7.5000000000000533   F   F   F
  1.4036069606553068  2.4311185697123214  7.5000000000000533   F   F   F
  4.2108208819659207  2.4311185697123214  7.5000000000000533   F   F   F
  7.0180348032764748  2.4311185697123214  7.5000000000000533   F   F   F
  2.8072139213105838  4.8622371394245913  7.5000000000000533   F   F   F
  5.6144278426211969  4.8622371394245913  7.5000000000000533   F   F   F
  8.4216417639317509  4.8622371394245913  7.5000000000000533   F   F   F
  1.4036069606553370  0.8103728565707913  9.7920805686827794   F   F   F
  4.2108208819658914  0.8103728565707913  9.7920805686827794   F   F   F
  7.0180348032765041  0.8103728565707913  9.7920805686827794   F   F   F
  2.8072139213106144  3.2414914262830612  9.7920805686827794   F   F   F
  5.6144278426211685  3.2414914262830612  9.7920805686827794   F   F   F
  8.4216417639317811  3.2414914262830612  9.7920805686827794   F   F   F
  4.2108208819659207  5.6726099959953826  9.7920805686827794   F   F   F
  7.0180348032764748  5.6726099959953826  9.7920805686827794   F   F   F
  9.8252487245870874  5.6726099959953826  9.7920805686827794   F   F   F
  8.4091023520880466  1.6134190000011392 12.0785770237450389   T   T   T
  2.8127558362797997  1.6104494278037327 12.0751643111020979   T   T   T
  5.6117538191580527  1.6036965475066758 12.0808246900752820   T   T   T
  9.8242584138962545  4.0353466120159647 12.0609511545793140   T   T   T
  4.2040683940987291  4.0148758279625198 12.0876911010777306   T   T   T
  7.0184759615765433  4.0214765154592556 12.0771433049574455   T   T   T
 11.2088123715704846  6.4727390356438157 12.0884424205743422   T   T   T
  5.6058709206916610  6.4616598566343439 12.0261717938371451   T   T   T
  8.4306806371684306  6.4693338537829561 12.0734600238323164   T   T   T
  4.2193634405729368  7.2511443913550497 14.3448841177553064   T   T   T
  6.9765325770084061  7.2346670647464286 14.3282947763095105   T   T   T
  5.6072870990208337 -0.0143444400545315 14.4981120408906534   T   T   T
  1.4182583548387080  2.4004303420269726 14.3663168306986258   T   T   T
  4.2165796929395283  2.3817743573740917 14.5008987812001031   T   T   T
  7.0774683306874131  2.4347724875103363 14.4756394522422660   T   T   T
  2.8087657448790089  4.8293472635145269 14.3693528900626077   T   T   T
  5.6076821264768855  4.8410659517987469 14.3438648940594309   T   T   T
  8.4329767148798140  4.8414605786310725 14.3630030227963328   T   T   T
  5.1527148683515103  1.3221807831269607 16.0036057781581462   T   T   T
  6.3785882924713695  2.0356083836890426 16.4075999536275390   T   T   T
  4.4648413224227470  0.9108705471503091 16.7591256859621609   T   T   T
  6.2089999632873631  2.9916511141029130 16.9265802864512551   T   T   T
  7.1175069808733253  1.4177287334340924 16.9397600574252962   T   T   T
