 C  H 
 1.0000000000000000
    20.0000000000000000    0.0000000000000000    0.0000000000000000
     0.0000000000000000   20.0000000000000000    0.0000000000000000
     0.0000000000000000    0.0000000000000000   20.0000000000000000
   2   4
Cartesian
 10.0000000000000000 10.0000000000000000 10.6665050690396939
 10.0000000000000000 10.0000000000000000  9.3334949309603061
 10.0000000000000000 10.9287537897252029 11.2408057106880879
 10.0000000000000000  9.0712462102747971 11.2408057106880879
 10.0000000000000000 10.9287537897252029  8.7591942893119121
 10.0000000000000000  9.0712462102747971  8.7591942893119121
