C                                       
   2.80000000000000     
     4.0000000000000000    0.0000000000000000    0.0000000000000000
    -2.0000000000000000    3.4641016151377499    0.0000000000000000
     0.0000000000000000    0.0000000000000000    8.1649658092772590
   C    Pt
     1    64
Selective dynamics
Direct
  0.1681226496135082  0.3343700276980357  0.3318301818423487   T   T   T
  0.0000000000000000  0.0000000000000000  0.0000000000000000   F   F   F
  0.2500000000000000  0.0000000000000000  0.0000000000000000   F   F   F
  0.5000000000000000  0.0000000000000000  0.0000000000000000   F   F   F
  0.7500000000000000  0.0000000000000000  0.0000000000000000   F   F   F
  0.0000000000000000  0.2500000000000000  0.0000000000000000   F   F   F
  0.2500000000000000  0.2500000000000000  0.0000000000000000   F   F   F
  0.5000000000000000  0.2500000000000000  0.0000000000000000   F   F   F
  0.7500000000000000  0.2500000000000000  0.0000000000000000   F   F   F
  0.0000000000000000  0.5000000000000000  0.0000000000000000   F   F   F
  0.2500000000000000  0.5000000000000000  0.0000000000000000   F   F   F
  0.5000000000000000  0.5000000000000000  0.0000000000000000   F   F   F
  0.7500000000000000  0.5000000000000000  0.0000000000000000   F   F   F
  0.0000000000000000  0.7500000000000000  0.0000000000000000   F   F   F
  0.2500000000000000  0.7500000000000000  0.0000000000000000   F   F   F
  0.5000000000000000  0.7500000000000000  0.0000000000000000   F   F   F
  0.7500000000000000  0.7500000000000000  0.0000000000000000   F   F   F
  0.1666666666666643  0.0833333333333357  0.1000000000000014   F   F   F
  0.4166666666666643  0.0833333333333357  0.1000000000000014   F   F   F
  0.6666666666666643  0.0833333333333357  0.1000000000000014   F   F   F
  0.9166666666666643  0.0833333333333357  0.1000000000000014   F   F   F
  0.1666666666666643  0.3333333333333357  0.1000000000000014   F   F   F
  0.4166666666666643  0.3333333333333357  0.1000000000000014   F   F   F
  0.6666666666666643  0.3333333333333357  0.1000000000000014   F   F   F
  0.9166666666666643  0.3333333333333357  0.1000000000000014   F   F   F
  0.1666666666666643  0.5833333333333357  0.1000000000000014   F   F   F
  0.4166666666666643  0.5833333333333357  0.1000000000000014   F   F   F
  0.6666666666666643  0.5833333333333357  0.1000000000000014   F   F   F
  0.9166666666666643  0.5833333333333357  0.1000000000000014   F   F   F
  0.1666666666666643  0.8333333333333357  0.1000000000000014   F   F   F
  0.4166666666666643  0.8333333333333357  0.1000000000000014   F   F   F
  0.6666666666666643  0.8333333333333357  0.1000000000000014   F   F   F
  0.9166666666666643  0.8333333333333357  0.1000000000000014   F   F   F
  0.0846375870016516  0.1682900745699811  0.2001098072354424   F   F   F
  0.3328846869606181  0.1683225316348711  0.1990987908115684   F   F   F
  0.5843017860056818  0.1673948931852820  0.1974875306703296   F   F   F
  0.8363681744541154  0.1682687529114304  0.1991146493913263   F   F   F
  0.0846142771395506  0.4165810053673979  0.2001108950841157   F   F   F
  0.3327404417349413  0.4165377768951828  0.2001219851628449   F   F   F
  0.5837659076996289  0.4170263225144168  0.1978683066736480   F   F   F
  0.8341838231930012  0.4170604907146114  0.1978809496927951   F   F   F
  0.3328689772706852  0.6648475919277814  0.1991040207734400   F   F   F
  0.0842586350649484  0.6671307956658907  0.1978779272924598   F   F   F
  0.5837679676701413  0.6670349767349961  0.1978734166436027   F   F   F
  0.8340641585934208  0.6671807249890378  0.1984166977451736   F   F   F
  0.0842871872833868  0.9174173169657323  0.1978488620540944   F   F   F
  0.3341859635720894  0.9172061968784746  0.1975137097735384   F   F   F
  0.5842680509604108  0.9171558484370834  0.1975026652543974   F   F   F
  0.8341771850662312  0.9173466284921474  0.1978715538159648   F   F   F
  0.9985867137391011  0.9948978530238861  0.2973053493385223   F   F   F
  0.2522248380597745  0.9982524792027831  0.2979834380622748   F   F   F
  0.5018366171247308  0.0011949955986452  0.2975772281893256   F   F   F
  0.7482648840039445  0.9981112059281259  0.2980828852954858   F   F   F
  0.5043899010589996  0.2505616313638726  0.2979779561845532   F   F   F
  0.7482783158876742  0.2506556327237135  0.2980340681963440   F   F   F
  0.9986262208010999  0.5041942535089490  0.2973200723436591   F   F   F
  0.5074877288784236  0.5040945253603510  0.2973551511981753   F   F   F
  0.7515749900680717  0.5012620580752483  0.2982275770341261   F   F   F
  0.0013659903442402  0.7509467191515782  0.2982239699155826   F   F   F
  0.2522191424155409  0.7546208930358063  0.2980262621220575   F   F   F
  0.5044223969990327  0.7543864227017778  0.2980243790266712   F   F   F
  0.7515541669909354  0.7508668368204567  0.2982285054388711   F   F   F
  0.9848477449112991  0.2427361971630120  0.3034239943589512   F   F   F
  0.2597957855590565  0.2427413007494863  0.3034905164358577   F   F   F
  0.2597808846276095  0.5177175652628350  0.3035320039825464   F   F   F
 
  0.00000000E+00  0.00000000E+00  0.00000000E+00
  0.00000000E+00  0.00000000E+00  0.00000000E+00
  0.00000000E+00  0.00000000E+00  0.00000000E+00
  0.00000000E+00  0.00000000E+00  0.00000000E+00
  0.00000000E+00  0.00000000E+00  0.00000000E+00
  0.00000000E+00  0.00000000E+00  0.00000000E+00
  0.00000000E+00  0.00000000E+00  0.00000000E+00
  0.00000000E+00  0.00000000E+00  0.00000000E+00
  0.00000000E+00  0.00000000E+00  0.00000000E+00
  0.00000000E+00  0.00000000E+00  0.00000000E+00
  0.00000000E+00  0.00000000E+00  0.00000000E+00
  0.00000000E+00  0.00000000E+00  0.00000000E+00
  0.00000000E+00  0.00000000E+00  0.00000000E+00
  0.00000000E+00  0.00000000E+00  0.00000000E+00
  0.00000000E+00  0.00000000E+00  0.00000000E+00
  0.00000000E+00  0.00000000E+00  0.00000000E+00
  0.00000000E+00  0.00000000E+00  0.00000000E+00
  0.00000000E+00  0.00000000E+00  0.00000000E+00
  0.00000000E+00  0.00000000E+00  0.00000000E+00
  0.00000000E+00  0.00000000E+00  0.00000000E+00
  0.00000000E+00  0.00000000E+00  0.00000000E+00
  0.00000000E+00  0.00000000E+00  0.00000000E+00
  0.00000000E+00  0.00000000E+00  0.00000000E+00
  0.00000000E+00  0.00000000E+00  0.00000000E+00
  0.00000000E+00  0.00000000E+00  0.00000000E+00
  0.00000000E+00  0.00000000E+00  0.00000000E+00
  0.00000000E+00  0.00000000E+00  0.00000000E+00
  0.00000000E+00  0.00000000E+00  0.00000000E+00
  0.00000000E+00  0.00000000E+00  0.00000000E+00
  0.00000000E+00  0.00000000E+00  0.00000000E+00
  0.00000000E+00  0.00000000E+00  0.00000000E+00
  0.00000000E+00  0.00000000E+00  0.00000000E+00
  0.00000000E+00  0.00000000E+00  0.00000000E+00
  0.00000000E+00  0.00000000E+00  0.00000000E+00
  0.00000000E+00  0.00000000E+00  0.00000000E+00
  0.00000000E+00  0.00000000E+00  0.00000000E+00
  0.00000000E+00  0.00000000E+00  0.00000000E+00
  0.00000000E+00  0.00000000E+00  0.00000000E+00
  0.00000000E+00  0.00000000E+00  0.00000000E+00
  0.00000000E+00  0.00000000E+00  0.00000000E+00
  0.00000000E+00  0.00000000E+00  0.00000000E+00
  0.00000000E+00  0.00000000E+00  0.00000000E+00
  0.00000000E+00  0.00000000E+00  0.00000000E+00
  0.00000000E+00  0.00000000E+00  0.00000000E+00
  0.00000000E+00  0.00000000E+00  0.00000000E+00
  0.00000000E+00  0.00000000E+00  0.00000000E+00
  0.00000000E+00  0.00000000E+00  0.00000000E+00
  0.00000000E+00  0.00000000E+00  0.00000000E+00
  0.00000000E+00  0.00000000E+00  0.00000000E+00
  0.00000000E+00  0.00000000E+00  0.00000000E+00
  0.00000000E+00  0.00000000E+00  0.00000000E+00
  0.00000000E+00  0.00000000E+00  0.00000000E+00
  0.00000000E+00  0.00000000E+00  0.00000000E+00
  0.00000000E+00  0.00000000E+00  0.00000000E+00
  0.00000000E+00  0.00000000E+00  0.00000000E+00
  0.00000000E+00  0.00000000E+00  0.00000000E+00
  0.00000000E+00  0.00000000E+00  0.00000000E+00
  0.00000000E+00  0.00000000E+00  0.00000000E+00
  0.00000000E+00  0.00000000E+00  0.00000000E+00
  0.00000000E+00  0.00000000E+00  0.00000000E+00
  0.00000000E+00  0.00000000E+00  0.00000000E+00
  0.00000000E+00  0.00000000E+00  0.00000000E+00
  0.00000000E+00  0.00000000E+00  0.00000000E+00
  0.00000000E+00  0.00000000E+00  0.00000000E+00
  0.00000000E+00  0.00000000E+00  0.00000000E+00
