Pt  C  H 
 1.0000000000000000
     8.4216417639317811    0.0000000000000000    0.0000000000000000
     4.2108208819658905    7.2933557091369128    0.0000000000000000
     0.0000000000000000    0.0000000000000000   21.8762417060484431
  36   2   4
Selective dynamics
Cartesian
  0.0000000000000000  0.0000000000000000  7.5000000000000533   F   F   F
  2.8072139213106135  0.0000000000000000  7.5000000000000533   F   F   F
  5.6144278426211676  0.0000000000000000  7.5000000000000533   F   F   F
  1.4036069606553068  2.4311185697123214  7.5000000000000533   F   F   F
  4.2108208819659207  2.4311185697123214  7.5000000000000533   F   F   F
  7.0180348032764748  2.4311185697123214  7.5000000000000533   F   F   F
  2.8072139213105838  4.8622371394245913  7.5000000000000533   F   F   F
  5.6144278426211969  4.8622371394245913  7.5000000000000533   F   F   F
  8.4216417639317509  4.8622371394245913  7.5000000000000533   F   F   F
  1.4036069606553370  0.8103728565707913  9.7920805686827794   F   F   F
  4.2108208819658914  0.8103728565707913  9.7920805686827794   F   F   F
  7.0180348032765041  0.8103728565707913  9.7920805686827794   F   F   F
  2.8072139213106144  3.2414914262830612  9.7920805686827794   F   F   F
  5.6144278426211685  3.2414914262830612  9.7920805686827794   F   F   F
  8.4216417639317811  3.2414914262830612  9.7920805686827794   F   F   F
  4.2108208819659207  5.6726099959953826  9.7920805686827794   F   F   F
  7.0180348032764748  5.6726099959953826  9.7920805686827794   F   F   F
  9.8252487245870874  5.6726099959953826  9.7920805686827794   F   F   F
  8.4219534378839764  1.6225429019561479 12.0483105807885575   T   T   T
  2.8194334762495745  1.6325008289911753 12.0813375907455587   T   T   T
  5.6039808661965580  1.6221905823184231 12.0787872300398824   T   T   T
  9.8215629814895493  4.0587892753826313 12.0552842467495971   T   T   T
  4.2018459162570565  4.0297191386250759 12.0941545680170748   T   T   T
  7.0115641079505675  4.0631302238166676 12.0471677005727269   T   T   T
 11.1996208999471865  6.4974647403564703 12.0913942986585941   T   T   T
  5.5990398038645601  6.4820381940248728 12.0419439637888726   T   T   T
  8.4299382325817032  6.4986219445328661 12.0808105537984183   T   T   T
  8.4024970837285391  0.0088528710627907 14.3512571060073224   T   T   T
  2.7567756865196236 -0.0075468489553036 14.3272455328256392   T   T   T
  5.5895583131365285  0.0353323856109236 14.5304172657055073   T   T   T
  9.8141116427019188  2.4474833679646872 14.3511620290681225   T   T   T
  4.2151640160188553  2.4216896346494274 14.5377125580954161   T   T   T
  7.0330006746959901  2.4589405188255760 14.3208416298691610   T   T   T
 11.2090016269467156  4.8713812486843997 14.3579306844207242   T   T   T
  5.5928734377879463  4.8746375954511079 14.3525970032519243   T   T   T
  8.4078772323756610  4.8762036249203851 14.3518676245966930   T   T   T
  4.5369685557060029  1.8692951495985253 16.5540751202648835   T   T   T
  5.2786695011279328  0.5812028099886726 16.5487887099038460   T   T   T
  5.1008454935987739  2.7165513405541248 16.9655347422330820   T   T   T
  3.5209310401715106  1.8073206985037495 16.9648177079755840   T   T   T
  6.2979490069877757  0.6407741917455280 16.9521719111831004   T   T   T
  4.7169009509363704 -0.2690152211892620 16.9567129736697169   T   T   T
