Pt  C  H 
 1.0000000000000000
     8.4216417639317811    0.0000000000000000    0.0000000000000000
     4.2108208819658905    7.2933557091369128    0.0000000000000000
     0.0000000000000000    0.0000000000000000   21.8762417060484431
  36   2   5
Selective dynamics
Cartesian
  0.0000000000000000  0.0000000000000000  7.5000000000000533   F   F   F
  2.8072139213106135  0.0000000000000000  7.5000000000000533   F   F   F
  5.6144278426211676  0.0000000000000000  7.5000000000000533   F   F   F
  1.4036069606553068  2.4311185697123214  7.5000000000000533   F   F   F
  4.2108208819659207  2.4311185697123214  7.5000000000000533   F   F   F
  7.0180348032764748  2.4311185697123214  7.5000000000000533   F   F   F
  2.8072139213105838  4.8622371394245913  7.5000000000000533   F   F   F
  5.6144278426211969  4.8622371394245913  7.5000000000000533   F   F   F
  8.4216417639317509  4.8622371394245913  7.5000000000000533   F   F   F
  1.4036069606553370  0.8103728565707913  9.7920805686827794   F   F   F
  4.2108208819658914  0.8103728565707913  9.7920805686827794   F   F   F
  7.0180348032765041  0.8103728565707913  9.7920805686827794   F   F   F
  2.8072139213106144  3.2414914262830612  9.7920805686827794   F   F   F
  5.6144278426211685  3.2414914262830612  9.7920805686827794   F   F   F
  8.4216417639317811  3.2414914262830612  9.7920805686827794   F   F   F
  4.2108208819659207  5.6726099959953826  9.7920805686827794   F   F   F
  7.0180348032764748  5.6726099959953826  9.7920805686827794   F   F   F
  9.8252487245870874  5.6726099959953826  9.7920805686827794   F   F   F
  8.4195006802931793  1.6316264899304118 12.0504205545477312   T   T   T
  2.8208264117775217  1.6401268558346898 12.0881464368410452   T   T   T
  5.5935158460616865  1.6418630228193281 12.0918275024078117   T   T   T
  9.8256048834180501  4.0617816050362077 12.0546957808186583   T   T   T
  4.2084790367821956  4.0402213130006244 12.0936750672496593   T   T   T
  7.0128651876287478  4.0626192627071402 12.0561248238153258   T   T   T
 11.2264296907714236  6.4938081127678062 12.0528055417555571   T   T   T
  5.6116524722562477  6.4928667054904796 12.0517290360405660   T   T   T
  8.4193799181865572  6.4967794318298147 12.0555240559089771   T   T   T
  8.4132999518550324  0.0220312591065223 14.3509314624093420   T   T   T
  2.7953207405539300  0.0188001439946792 14.3496537952385967   T   T   T
  5.6091873355203798  0.0195195031157799 14.3528782213491315   T   T   T
  9.8145695272628561  2.4530032541958198 14.3489162328805957   T   T   T
  4.2063811190153739  2.4507023719978958 14.6057881214200282   T   T   T
  7.0147288662591398  2.4517305925138420 14.3500621941051456   T   T   T
 11.2204805865662163  4.8865684423672322 14.3525648672207407   T   T   T
  5.6043998510169413  4.8868971391677345 14.3533096133981175   T   T   T
  8.4149375586593926  4.8862522111247415 14.3497753915796764   T   T   T
  4.1076290515306573  2.4010073395821467 16.6989574062193782   T   T   T
  5.3860155213531398  2.7634792007498215 17.4200862346414489   T   T   T
  3.2879472591608936  3.0940765546751856 16.9385540391476006   T   T   T
  3.7838638263279094  1.3736047328292980 16.9210825872664898   T   T   T
  5.2164520849233078  2.6703895692083299 18.5099611626065794   T   T   T
  6.2197663394462177  2.0933962892124449 17.1613716380304133   T   T   T
  5.7011838016392815  3.7980177659087566 17.2222488188146095   T   T   T
