Pt  C  H 
 1.0000000000000000
     8.4216417639317811    0.0000000000000000    0.0000000000000000
     4.2108208819658905    7.2933557091369128    0.0000000000000000
     0.0000000000000000    0.0000000000000000   21.8762417060484431
  36   1   3
Selective dynamics
Cartesian
  0.0000000000000000  0.0000000000000000  7.5000000000000533   F   F   F
  2.8072139213106135  0.0000000000000000  7.5000000000000533   F   F   F
  5.6144278426211676  0.0000000000000000  7.5000000000000533   F   F   F
  1.4036069606553068  2.4311185697123214  7.5000000000000533   F   F   F
  4.2108208819659207  2.4311185697123214  7.5000000000000533   F   F   F
  7.0180348032764748  2.4311185697123214  7.5000000000000533   F   F   F
  2.8072139213105838  4.8622371394245913  7.5000000000000533   F   F   F
  5.6144278426211969  4.8622371394245913  7.5000000000000533   F   F   F
  8.4216417639317509  4.8622371394245913  7.5000000000000533   F   F   F
  1.4036069606553370  0.8103728565707913  9.7920805686827794   F   F   F
  4.2108208819658914  0.8103728565707913  9.7920805686827794   F   F   F
  7.0180348032765041  0.8103728565707913  9.7920805686827794   F   F   F
  2.8072139213106144  3.2414914262830612  9.7920805686827794   F   F   F
  5.6144278426211685  3.2414914262830612  9.7920805686827794   F   F   F
  8.4216417639317811  3.2414914262830612  9.7920805686827794   F   F   F
  4.2108208819659207  5.6726099959953826  9.7920805686827794   F   F   F
  7.0180348032764748  5.6726099959953826  9.7920805686827794   F   F   F
  9.8252487245870874  5.6726099959953826  9.7920805686827794   F   F   F
  8.4183485668094242  1.6326631391812025 12.0498360543120207   T   T   T
  2.8217100493484448  1.6399119567319793 12.0878018457223053   T   T   T
  5.5944956616055865  1.6409135791434104 12.0850791617599018   T   T   T
  9.8243727593894370  4.0623061719782321 12.0527506132439637   T   T   T
  4.2085191560456900  4.0435842569875042 12.0870407100671677   T   T   T
  7.0138477449791354  4.0620615771427255 12.0537890406805044   T   T   T
 11.2260014004249857  6.4943991339016485 12.0496908105158482   T   T   T
  5.6118673249297633  6.4939046309488306 12.0513780254044853   T   T   T
  8.4186651396097911  6.4952862641676425 12.0534324162796764   T   T   T
  8.4124720035348375  0.0235374970332470 14.3504704558218616   T   T   T
  2.7953646007057431  0.0202128589287544 14.3480945159265811   T   T   T
  5.6095021381586996  0.0207237234274635 14.3475550492009312   T   T   T
  9.8113877886984557  2.4532163381586778 14.3472434684423646   T   T   T
  4.2028230922739382  2.4563217503455421 14.5701043714146170   T   T   T
  7.0152445717791752  2.4535787080369187 14.3473572051698373   T   T   T
 11.2196057381789913  4.8910310831778512 14.3471954433617359   T   T   T
  5.6089678930228617  4.8900850939942035 14.3474374515029197   T   T   T
  8.4122259099224586  4.8853808820189064 14.3497126403280966   T   T   T
  4.2033890929873570  2.4654763166839224 16.6444206505710213   T   T   T
  3.3225371937655321  3.0261896680177540 16.9822083226933138   T   T   T
  4.1600894899170164  1.4245119791350169 16.9899136107199809   T   T   T
  5.1285693068180143  2.9512780536399661 16.9797236383500518   T   T   T
