Pt  C  H 
 1.0000000000000000
     8.4216417639317811    0.0000000000000000    0.0000000000000000
     4.2108208819658905    7.2933557091369128    0.0000000000000000
     0.0000000000000000    0.0000000000000000   21.8762417060484431
  36   2   2
Selective dynamics
Cartesian
  0.0000000000000000  0.0000000000000000  7.5000000000000533   F   F   F
  2.8072139213106135  0.0000000000000000  7.5000000000000533   F   F   F
  5.6144278426211676  0.0000000000000000  7.5000000000000533   F   F   F
  1.4036069606553068  2.4311185697123214  7.5000000000000533   F   F   F
  4.2108208819659207  2.4311185697123214  7.5000000000000533   F   F   F
  7.0180348032764748  2.4311185697123214  7.5000000000000533   F   F   F
  2.8072139213105838  4.8622371394245913  7.5000000000000533   F   F   F
  5.6144278426211969  4.8622371394245913  7.5000000000000533   F   F   F
  8.4216417639317509  4.8622371394245913  7.5000000000000533   F   F   F
  1.4036069606553370  0.8103728565707913  9.7920805686827794   F   F   F
  4.2108208819658914  0.8103728565707913  9.7920805686827794   F   F   F
  7.0180348032765041  0.8103728565707913  9.7920805686827794   F   F   F
  2.8072139213106144  3.2414914262830612  9.7920805686827794   F   F   F
  5.6144278426211685  3.2414914262830612  9.7920805686827794   F   F   F
  8.4216417639317811  3.2414914262830612  9.7920805686827794   F   F   F
  4.2108208819659207  5.6726099959953826  9.7920805686827794   F   F   F
  7.0180348032764748  5.6726099959953826  9.7920805686827794   F   F   F
  9.8252487245870874  5.6726099959953826  9.7920805686827794   F   F   F
  8.4253071428391468  1.6370632403108056 12.0470605164360904   T   T   T
  2.8199452281666142  1.6314432641111882 12.0852366522224788   T   T   T
  5.6078834616628033  1.6301632496708562 12.0858160127725700   T   T   T
  9.8329784942818907  4.0715825566842314 12.0513726925606353   T   T   T
  4.2145513650619435  4.0437180614112380 12.1111216844546874   T   T   T
  7.0168696975271843  4.0706410039386842 12.0514599367554194   T   T   T
 11.2210528658903055  6.5113091538594832 12.0712040338368851   T   T   T
  5.6294388934733037  6.5116219203744983 12.0717460715596356   T   T   T
  8.4253493081639057  6.5049718295832717 12.0740299986388209   T   T   T
  8.4248676055372584  0.0478411479823800 14.3633693396823556   T   T   T
  2.7588226721567732  0.0072629735655602 14.4680816206720984   T   T   T
  5.6703928156726437  0.0055343987889477 14.4682836309518645   T   T   T
  9.8080309506297656  2.4830081236925263 14.3390164139471956   T   T   T
  4.2154946310038675  2.6372771181070056 14.4967407471484435   T   T   T
  7.0448868932449988  2.4845428299073595 14.3376168116579272   T   T   T
 11.2171735301307969  4.9415601955156792 14.3669425333315548   T   T   T
  5.6371334184970783  4.9420019387450909 14.3665719076035892   T   T   T
  8.4279876783014096  4.8682596885585872 14.3500091538065391   T   T   T
  4.2169216320838050  1.8117637521798649 16.5402551686768753   T   T   T
  4.2151204021422517  0.8128772742028092 15.5412450571093856   T   T   T
  5.1463937207829691  2.0452210964472304 17.0677191811587186   T   T   T
  3.2890672891419159  2.0494669337958071 17.0685573217844109   T   T   T
