Pt  C  H 
 1.0000000000000000
     8.4216417639317811    0.0000000000000000    0.0000000000000000
     4.2108208819658905    7.2933557091369128    0.0000000000000000
     0.0000000000000000    0.0000000000000000   21.8762417060484431
  36   2   3
Selective dynamics
Cartesian
  0.0000000000000000  0.0000000000000000  7.5000000000000533   F   F   F
  2.8072139213106135  0.0000000000000000  7.5000000000000533   F   F   F
  5.6144278426211676  0.0000000000000000  7.5000000000000533   F   F   F
  1.4036069606553068  2.4311185697123214  7.5000000000000533   F   F   F
  4.2108208819659207  2.4311185697123214  7.5000000000000533   F   F   F
  7.0180348032764748  2.4311185697123214  7.5000000000000533   F   F   F
  2.8072139213105838  4.8622371394245913  7.5000000000000533   F   F   F
  5.6144278426211969  4.8622371394245913  7.5000000000000533   F   F   F
  8.4216417639317509  4.8622371394245913  7.5000000000000533   F   F   F
  1.4036069606553370  0.8103728565707913  9.7920805686827794   F   F   F
  4.2108208819658914  0.8103728565707913  9.7920805686827794   F   F   F
  7.0180348032765041  0.8103728565707913  9.7920805686827794   F   F   F
  2.8072139213106144  3.2414914262830612  9.7920805686827794   F   F   F
  5.6144278426211685  3.2414914262830612  9.7920805686827794   F   F   F
  8.4216417639317811  3.2414914262830612  9.7920805686827794   F   F   F
  4.2108208819659207  5.6726099959953826  9.7920805686827794   F   F   F
  7.0180348032764748  5.6726099959953826  9.7920805686827794   F   F   F
  9.8252487245870874  5.6726099959953826  9.7920805686827794   F   F   F
  8.4011591426631220  1.6426231937152134 12.0765338921818515   T   T   T
  2.8125780882051532  1.6416154866967787 12.0767280614253636   T   T   T
  5.6062076453867746  1.6413396575407324 12.0818549975817060   T   T   T
  9.8187820591324009  4.0635189147331889 12.0535208145659833   T   T   T
  4.2109995132858060  4.0616918498845500 12.0827401701185071   T   T   T
  7.0036980212354418  4.0625820371964334 12.0819232174806910   T   T   T
 11.2251562992226734  6.4986710419836067 12.0534837770295749   T   T   T
  5.6072356426205561  6.4839258810837919 12.0786492232996157   T   T   T
  8.4120945058624770  6.4976030203895050 12.0541001080277645   T   T   T
  8.4085712000454809  0.0324500114023477 14.3600359968731208   T   T   T
  2.7948501444962703  0.0328624398106651 14.3603220972845715   T   T   T
  5.5982766552286662  0.0025245428570466 14.3541568894199347   T   T   T
  9.8122312125884381  2.4630169524575565 14.3600834928626089   T   T   T
  4.1669924103339833  2.4498609256152681 14.4994665033663352   T   T   T
  7.0317823641498203  2.4446602198896743 14.4943326253906442   T   T   T
 11.1902200405021386  4.9091831519335773 14.3531725233360739   T   T   T
  5.6017942324942371  4.9298232906996784 14.4986368457367103   T   T   T
  8.4331873218349109  4.9057719575182110 14.3543244376765973   T   T   T
  5.6026629963399932  3.2752073325173816 15.6414192722554830   T   T   T
  5.6055066502166859  3.2737736391537351 17.1336534247074894   T   T   T
  4.7340739090484929  3.8265477947899664 17.5190533937264732   T   T   T
  5.5634947098838259  2.2418425701228082 17.5166387985824947   T   T   T
  6.5210922138348799  3.7526856693330992 17.5168842625056804   T   T   T
