Pt  C  H 
 1.0000000000000000
     8.4216417639317811    0.0000000000000000    0.0000000000000000
     4.2108208819658905    7.2933557091369128    0.0000000000000000
     0.0000000000000000    0.0000000000000000   21.8762417060484431
  36   2   4
Selective dynamics
Cartesian
  0.0000000000000000  0.0000000000000000  7.5000000000000533   F   F   F
  2.8072139213106135  0.0000000000000000  7.5000000000000533   F   F   F
  5.6144278426211676  0.0000000000000000  7.5000000000000533   F   F   F
  1.4036069606553068  2.4311185697123214  7.5000000000000533   F   F   F
  4.2108208819659207  2.4311185697123214  7.5000000000000533   F   F   F
  7.0180348032764748  2.4311185697123214  7.5000000000000533   F   F   F
  2.8072139213105838  4.8622371394245913  7.5000000000000533   F   F   F
  5.6144278426211969  4.8622371394245913  7.5000000000000533   F   F   F
  8.4216417639317509  4.8622371394245913  7.5000000000000533   F   F   F
  1.4036069606553370  0.8103728565707913  9.7920805686827794   F   F   F
  4.2108208819658914  0.8103728565707913  9.7920805686827794   F   F   F
  7.0180348032765041  0.8103728565707913  9.7920805686827794   F   F   F
  2.8072139213106144  3.2414914262830612  9.7920805686827794   F   F   F
  5.6144278426211685  3.2414914262830612  9.7920805686827794   F   F   F
  8.4216417639317811  3.2414914262830612  9.7920805686827794   F   F   F
  4.2108208819659207  5.6726099959953826  9.7920805686827794   F   F   F
  7.0180348032764748  5.6726099959953826  9.7920805686827794   F   F   F
  9.8252487245870874  5.6726099959953826  9.7920805686827794   F   F   F
  8.4361917465964709  1.6178974281382785 12.0481889504671376   T   T   T
  2.8280327824198803  1.6293949121305478 12.0732435497133768   T   T   T
  5.6164359201233749  1.6176297225856444 12.0897958135974015   T   T   T
  9.8379066939710285  4.0558372215464331 12.0614626280217099   T   T   T
  4.2118178330209908  4.0248485850661320 12.1028937540484698   T   T   T
  7.0260106028618310  4.0615474673998655 12.0485144816881391   T   T   T
 11.2092591803600072  6.4913997179035787 12.1039959343963694   T   T   T
  5.6035084562949136  6.4733112723413209 12.0286930613537262   T   T   T
  8.4422931328104731  6.4919720023665413 12.0728427706523842   T   T   T
  4.2255564142730346  7.2914346880780663 14.3560189878241076   T   T   T
  6.9737018856867365  7.2601732891981712 14.3013340958650890   T   T   T
  5.6316458798858120  0.0338289688397003 14.5520079049391153   T   T   T
  1.4407940949031166  2.4414306166224642 14.3584635007690089   T   T   T
  4.2612631301534316  2.4164571004330599 14.5516529295538710   T   T   T
  7.1017841794417116  2.4683306297566823 14.3205952353152526   T   T   T
  2.8311826889968263  4.8650658614693603 14.3797252592132434   T   T   T
  5.6297235596368234  4.8613668002133448 14.3550198774994637   T   T   T
  8.4560714741679224  4.8775479735259584 14.3594424589541347   T   T   T
  4.8518147518622170  1.1693951929248541 16.0878716964833011   T   T   T
  5.7628053350761173  1.6850014088330199 17.1677317672629144   T   T   T
  3.9690201504228648  0.6688263525816642 16.5231152790953928   T   T   T
  5.2194458256789051  2.4124000777132757 17.7956533969494224   T   T   T
  6.6750225066881246  2.1745237812611142 16.7861823759300925   T   T   T
  6.0705193027909452  0.8489657729364473 17.8204875766550472   T   T   T
