CONTCAR\(7)\(0\0\1)                     
   1.00000000000000     
     8.2045001983999999    0.0000000000000000    0.0000000000000000
    -4.1022500991999999    7.1053055971000001    0.0000000000000000
     0.0000000000000000    0.0000000000000000   26.4547004699999988
   H    N    Ru
     3     1    36
Selective dynamics
Direct
  0.3978293858591826  0.6426282477631158  0.3411251465976514   T   T   T
  0.5738002965135921  0.5966594739808330  0.3413259057534686   T   T   T
  0.3518577860446822  0.4207554007252582  0.3407757183159683   T   T   T
  0.4415783471441458  0.5537300595106707  0.3278799869488502   T   T   T
  0.1080453228447627  0.2188212910537389  0.2411511079056752   T   T   T
  0.4439313078254623  0.2188647399257492  0.2412180812505610   T   T   T
  0.7776720935196907  0.2221869412937611  0.2412557670459481   T   T   T
  0.1082370203388264  0.5558254427886010  0.2411884940090358   T   T   T
  0.4441126192730421  0.5553289461839088  0.2441700448146246   T   T   T
  0.7809227028141580  0.5558824483900705  0.2412139867297049   T   T   T
  0.1110720684755496  0.8888150179498555  0.2416905258885156   T   T   T
  0.4440073014949362  0.8915712997822661  0.2411571841396030   T   T   T
  0.7806767413798755  0.8913416574528479  0.2412240868790657   T   T   T
  0.2225451388017563  0.1116614152362314  0.1619320599789884   T   T   T
  0.5554330137634660  0.1109287616768997  0.1624206519905244   T   T   T
  0.8888999011097570  0.1109451381738577  0.1624316960201623   T   T   T
  0.2225852651070417  0.4445007028843434  0.1623025346175719   T   T   T
  0.5552712320667762  0.4445898182215556  0.1623299611272626   T   T   T
  0.8888701751771225  0.4444273260648500  0.1624092780747998   T   T   T
  0.2225454531344147  0.7774362902073516  0.1619190376914553   T   T   T
  0.5553182919607936  0.7772258754941813  0.1623100928939302   T   T   T
  0.8882862623879388  0.7774612557472875  0.1619417982976525   T   T   T
  0.1111100019999967  0.2222200040000004  0.0813300009999978   F   F   F
  0.4444400069999972  0.2222200040000004  0.0813300009999978   F   F   F
  0.7777799959999996  0.2222200040000004  0.0813300009999978   F   F   F
  0.1111100019999967  0.5555599930000028  0.0813300009999978   F   F   F
  0.4444400069999972  0.5555599930000028  0.0813300009999978   F   F   F
  0.7777799959999996  0.5555599930000028  0.0813300009999978   F   F   F
  0.1111100019999967  0.8888900279999987  0.0813300009999978   F   F   F
  0.4444400069999972  0.8888900279999987  0.0813300009999978   F   F   F
  0.7777799959999996  0.8888900279999987  0.0813300009999978   F   F   F
  0.2222200040000004  0.1111100019999967  0.0000000000000000   F   F   F
  0.5555599930000028  0.1111100019999967  0.0000000000000000   F   F   F
  0.8888900279999987  0.1111100019999967  0.0000000000000000   F   F   F
  0.2222200040000004  0.4444400069999972  0.0000000000000000   F   F   F
  0.5555599930000028  0.4444400069999972  0.0000000000000000   F   F   F
  0.8888900279999987  0.4444400069999972  0.0000000000000000   F   F   F
  0.2222200040000004  0.7777799959999996  0.0000000000000000   F   F   F
  0.5555599930000028  0.7777799959999996  0.0000000000000000   F   F   F
  0.8888900279999987  0.7777799959999996  0.0000000000000000   F   F   F
 
  0.00000000E+00  0.00000000E+00  0.00000000E+00
  0.00000000E+00  0.00000000E+00  0.00000000E+00
  0.00000000E+00  0.00000000E+00  0.00000000E+00
  0.00000000E+00  0.00000000E+00  0.00000000E+00
  0.00000000E+00  0.00000000E+00  0.00000000E+00
  0.00000000E+00  0.00000000E+00  0.00000000E+00
  0.00000000E+00  0.00000000E+00  0.00000000E+00
  0.00000000E+00  0.00000000E+00  0.00000000E+00
  0.00000000E+00  0.00000000E+00  0.00000000E+00
  0.00000000E+00  0.00000000E+00  0.00000000E+00
  0.00000000E+00  0.00000000E+00  0.00000000E+00
  0.00000000E+00  0.00000000E+00  0.00000000E+00
  0.00000000E+00  0.00000000E+00  0.00000000E+00
  0.00000000E+00  0.00000000E+00  0.00000000E+00
  0.00000000E+00  0.00000000E+00  0.00000000E+00
  0.00000000E+00  0.00000000E+00  0.00000000E+00
  0.00000000E+00  0.00000000E+00  0.00000000E+00
  0.00000000E+00  0.00000000E+00  0.00000000E+00
  0.00000000E+00  0.00000000E+00  0.00000000E+00
  0.00000000E+00  0.00000000E+00  0.00000000E+00
  0.00000000E+00  0.00000000E+00  0.00000000E+00
  0.00000000E+00  0.00000000E+00  0.00000000E+00
  0.00000000E+00  0.00000000E+00  0.00000000E+00
  0.00000000E+00  0.00000000E+00  0.00000000E+00
  0.00000000E+00  0.00000000E+00  0.00000000E+00
  0.00000000E+00  0.00000000E+00  0.00000000E+00
  0.00000000E+00  0.00000000E+00  0.00000000E+00
  0.00000000E+00  0.00000000E+00  0.00000000E+00
  0.00000000E+00  0.00000000E+00  0.00000000E+00
  0.00000000E+00  0.00000000E+00  0.00000000E+00
  0.00000000E+00  0.00000000E+00  0.00000000E+00
  0.00000000E+00  0.00000000E+00  0.00000000E+00
  0.00000000E+00  0.00000000E+00  0.00000000E+00
  0.00000000E+00  0.00000000E+00  0.00000000E+00
  0.00000000E+00  0.00000000E+00  0.00000000E+00
  0.00000000E+00  0.00000000E+00  0.00000000E+00
  0.00000000E+00  0.00000000E+00  0.00000000E+00
  0.00000000E+00  0.00000000E+00  0.00000000E+00
  0.00000000E+00  0.00000000E+00  0.00000000E+00
  0.00000000E+00  0.00000000E+00  0.00000000E+00
