 C  H 
 1.0000000000000000
    20.0000000000000000    0.0000000000000000    0.0000000000000000
     0.0000000000000000   20.0000000000000000    0.0000000000000000
     0.0000000000000000    0.0000000000000000   20.0000000000000000
   2   2
Cartesian
 10.0000000000000000 10.0000000000000000 10.6038447839821508
 10.0000000000000000 10.0000000000000000  9.3961552160178492
 10.0000000000000000 10.0000000000000000  8.3251659765498918
 10.0000000000000000 10.0000000000000000 11.6748340234501082
