Pt  C  H 
 1.0000000000000000
     8.4216417639317811    0.0000000000000000    0.0000000000000000
     4.2108208819658905    7.2933557091369128    0.0000000000000000
     0.0000000000000000    0.0000000000000000   21.8762417060484431
  36   2   1
Selective dynamics
Cartesian
  0.0000000000000000  0.0000000000000000  7.5000000000000533   F   F   F
  2.8072139213106135  0.0000000000000000  7.5000000000000533   F   F   F
  5.6144278426211676  0.0000000000000000  7.5000000000000533   F   F   F
  1.4036069606553068  2.4311185697123214  7.5000000000000533   F   F   F
  4.2108208819659207  2.4311185697123214  7.5000000000000533   F   F   F
  7.0180348032764748  2.4311185697123214  7.5000000000000533   F   F   F
  2.8072139213105838  4.8622371394245913  7.5000000000000533   F   F   F
  5.6144278426211969  4.8622371394245913  7.5000000000000533   F   F   F
  8.4216417639317509  4.8622371394245913  7.5000000000000533   F   F   F
  1.4036069606553370  0.8103728565707913  9.7920805686827794   F   F   F
  4.2108208819658914  0.8103728565707913  9.7920805686827794   F   F   F
  7.0180348032765041  0.8103728565707913  9.7920805686827794   F   F   F
  2.8072139213106144  3.2414914262830612  9.7920805686827794   F   F   F
  5.6144278426211685  3.2414914262830612  9.7920805686827794   F   F   F
  8.4216417639317811  3.2414914262830612  9.7920805686827794   F   F   F
  4.2108208819659207  5.6726099959953826  9.7920805686827794   F   F   F
  7.0180348032764748  5.6726099959953826  9.7920805686827794   F   F   F
  9.8252487245870874  5.6726099959953826  9.7920805686827794   F   F   F
  8.4141085895207937  1.6331971331518866 12.0774424454032943   T   T   T
  2.8178329534456155  1.6282192280764138 12.0672980379665713   T   T   T
  5.6193366710168311  1.6234829569587155 12.0841211563407018   T   T   T
  9.8310350254994869  4.0546759993403132 12.0444657828290271   T   T   T
  4.2120879324644331  4.0293505301601842 12.0894368475570939   T   T   T
  7.0254247053687386  4.0403629030541728 12.0764929180075793   T   T   T
 11.2099055142672999  6.4944503607090391 12.0893967957831947   T   T   T
  5.6194383023520684  6.4854065022500853 12.0337498474121976   T   T   T
  8.4341479194047952  6.4883398556945169 12.0666571562306597   T   T   T
  4.2629548119378908  7.2821637750039319 14.3517352763866928   T   T   T
  6.9889053456373293  7.2748084541342699 14.3614890558807176   T   T   T
  5.6435006437341606 -0.0878459969654093 14.4728012863192017   T   T   T
  1.4192466253051479  2.4440668546246567 14.3506311771833222   T   T   T
  4.1505189220104128  2.4960777979784163 14.4751517630306594   T   T   T
  7.1374685890402016  2.4975393947394569 14.4818243759418248   T   T   T
  2.8234521166274034  4.8692727546735766 14.3524658909585856   T   T   T
  5.6322576031904896  4.9109599188676611 14.3517727720616346   T   T   T
  8.4425604174082256  4.8675947149033947 14.3509548950158425   T   T   T
  4.7013506799625064  1.0837721573385868 16.0124965087187796   T   T   T
  5.8193518589450779  1.7456784877385383 15.6257503400070448   T   T   T
  4.2105139562672917  0.7979347946085277 16.9378966180667305   T   T   T
