 H 
 1.0000000000000000
    20.0000000000000000    0.0000000000000000    0.0000000000000000
     0.0000000000000000   20.0000000000000000    0.0000000000000000
     0.0000000000000000    0.0000000000000000   20.0000000000000000
   2
Cartesian
 10.0000000000000000 10.0000000000000000 10.3755714857142856
 10.0000000000000000 10.0000000000000000  9.6344285142857142
