 C  H 
 1.0000000000000000
    20.0000000000000000    0.0000000000000000    0.0000000000000000
     0.0000000000000000   20.0000000000000000    0.0000000000000000
     0.0000000000000000    0.0000000000000000   20.0000000000000000
   2   6
Cartesian
 10.0000000000000000  9.9999934691029075 10.7640920900501058
 10.0000000000000000 10.0000065308970925  9.2359079099498942
 10.0000000000000000 11.0240616310376929 11.1665825167144881
  9.1130355891121528  9.4880134547383417 11.1665676781677750
 10.8869644108878472  9.4880134547383417 11.1665676781677750
 10.0000000000000000  8.9759383689623071  8.8334174832855119
  9.1130355891121528 10.5119865452616583  8.8334323218322250
 10.8869644108878472 10.5119865452616583  8.8334323218322250
