 C  H 
 1.0000000000000000
    20.0000000000000000    0.0000000000000000    0.0000000000000000
     0.0000000000000000   20.0000000000000000    0.0000000000000000
     0.0000000000000000    0.0000000000000000   20.0000000000000000
   2   6
Cartesian
 10.0000000000000000  9.9999934691028631 10.7640920900500703
 10.0000000000000000 10.0000065308971386  9.2359079099499297
 10.0000000000000000 11.0240616310376538 11.1665825167145272
  9.1130355891121440  9.4880134547383950 11.1665676781677803
 10.8869644108878560  9.4880134547383950 11.1665676781677803
 10.0000000000000000  8.9759383689623462  8.8334174832854711
  9.1130355891121440 10.5119865452616068  8.8334323218322197
 10.8869644108878560 10.5119865452616068  8.8434323218322195
