 C  H 
 1.0000000000000000
    20.0000000000000000    0.0000000000000000    0.0000000000000000
     0.0000000000000000   20.0000000000000000    0.0000000000000000
     0.0000000000000000    0.0000000000000000   20.0000000000000000
   1   4
Cartesian
 10.0000000000000000 10.0000000000000000 10.0000000000000000
 10.6332802606202392 10.6332802606202392 10.6332802606202392
  9.3667197393797590  9.3667197393797590 10.6332802606202392
 10.6332802606202392  9.3667197393797590  9.3667197393797590
  9.3667197393797590 10.6332802606202392  9.3767197393797588
