Pt  H 
 1.0000000000000000
     8.4216417639317811    0.0000000000000000    0.0000000000000000
     4.2108208819658905    7.2933557091369128    0.0000000000000000
     0.0000000000000000    0.0000000000000000   21.8762417060484431
  36   1
Selective dynamics
Cartesian
  0.0000000000000000  0.0000000000000000  7.5000000000000533   F   F   F
  2.8072139213106135  0.0000000000000000  7.5000000000000533   F   F   F
  5.6144278426211676  0.0000000000000000  7.5000000000000533   F   F   F
  1.4036069606553068  2.4311185697123214  7.5000000000000533   F   F   F
  4.2108208819659207  2.4311185697123214  7.5000000000000533   F   F   F
  7.0180348032764748  2.4311185697123214  7.5000000000000533   F   F   F
  2.8072139213105838  4.8622371394245913  7.5000000000000533   F   F   F
  5.6144278426211969  4.8622371394245913  7.5000000000000533   F   F   F
  8.4216417639317509  4.8622371394245913  7.5000000000000533   F   F   F
  1.4036069606553370  0.8103728565707913  9.7920805686827794   F   F   F
  4.2108208819658914  0.8103728565707913  9.7920805686827794   F   F   F
  7.0180348032765041  0.8103728565707913  9.7920805686827794   F   F   F
  2.8072139213106144  3.2414914262830612  9.7920805686827794   F   F   F
  5.6144278426211685  3.2414914262830612  9.7920805686827794   F   F   F
  8.4216417639317811  3.2414914262830612  9.7920805686827794   F   F   F
  4.2108208819659207  5.6726099959953826  9.7920805686827794   F   F   F
  7.0180348032764748  5.6726099959953826  9.7920805686827794   F   F   F
  9.8252487245870874  5.6726099959953826  9.7920805686827794   F   F   F
  8.4261401799521600  1.6185503430358692 12.0751348965368113   T   T   T
  2.8028089276875225  1.6185826620843626 12.0752295137518004   T   T   T
  5.6143935815453814  1.6200312201325768 12.0563602895806739   T   T   T
  9.8251719292353368  4.0479643812495052 12.0633597703431779   T   T   T
  4.2100190877603776  4.0521517610726905 12.0565398278674536   T   T   T
  7.0186811563615024  4.0520704509877890 12.0565180866027895   T   T   T
 11.2330728502560895  6.4858336797685459 12.0633184300072713   T   T   T
  5.6143883787499931  6.4872732358973817 12.0742630032554779   T   T   T
  8.4174445843520829  6.4859360720719321 12.0632867662990648   T   T   T
 12.5954324984633299  7.2725228030826798 14.4011123035304411   T   T   T
  7.0551706151011553  7.2725136826712085 14.4010412956537746   T   T   T
  5.6144449667647160  0.0022037396761868 14.3600293765415064   T   T   T
  9.8252561882356524  2.4766513707749360 14.4010957975258620   T   T   T
  4.2263775378023736  2.4406790218313943 14.3595417175712896   T   T   T
  7.0024689328873340  2.4406732780928064 14.3596176623761576   T   T   T
  2.8088662747644455  4.8630938605131124 14.3600221370270500   T   T   T
  5.6144129588774323  4.8452931285177963 14.3595159860485655   T   T   T
  8.4199232949132661  4.8630513387757119 14.3600602054238156   T   T   T
  1.4029397001397732  0.8170929052352492 15.2478855255002959   T   T   T
