CONTCAR\(7)\(0\0\1)                     
   1.00000000000000     
     8.2045001983999999    0.0000000000000000    0.0000000000000000
    -4.1022500991999999    7.1053055971000001    0.0000000000000000
     0.0000000000000000    0.0000000000000000   26.4547004699999988
   H    N    Ru
     1     1    36
Selective dynamics
Direct
  0.5559215397616839  0.4447277434342791  0.3273407846999988   T   T   T
  0.5556784950016170  0.4444744467550111  0.2885860120532179   T   T   T
  0.1045681733848172  0.2189905318396519  0.2409753622305979   T   T   T
  0.4400266180262644  0.2133765833249114  0.2442587347047697   T   T   T
  0.7810530244972370  0.2189555114785830  0.2409806537295946   T   T   T
  0.1109446359088497  0.5551762151075562  0.2413669194581750   T   T   T
  0.4400650368324892  0.5599892954470650  0.2442624898304951   T   T   T
  0.7866740651805485  0.5600128093002377  0.2442370503135969   T   T   T
  0.1108955251451503  0.8891149139010726  0.2413711028867021   T   T   T
  0.4448166316412643  0.8890732381938978  0.2413707050496079   T   T   T
  0.7810094461454602  0.8954130448221267  0.2409691874325578   T   T   T
  0.2237443769032597  0.1117476867490602  0.1626356827718163   T   T   T
  0.5546921475264126  0.1117994609518256  0.1626586201071129   T   T   T
  0.8888568013656569  0.1111020573499899  0.1617218563064934   T   T   T
  0.2238646854909867  0.4454084093442807  0.1626480211222624   T   T   T
  0.5555948113782214  0.4444359762400130  0.1609374025198704   T   T   T
  0.8882315426072326  0.4453000651294356  0.1626570388009029   T   T   T
  0.2222312435337718  0.7777455159250842  0.1617988645372436   T   T   T
  0.5545944982829377  0.7761562562510871  0.1626490337145870   T   T   T
  0.8883056700363261  0.7763102577628007  0.1626326341750112   T   T   T
  0.1111100019999967  0.2222200040000004  0.0813300009999978   F   F   F
  0.4444400069999972  0.2222200040000004  0.0813300009999978   F   F   F
  0.7777799959999996  0.2222200040000004  0.0813300009999978   F   F   F
  0.1111100019999967  0.5555599930000028  0.0813300009999978   F   F   F
  0.4444400069999972  0.5555599930000028  0.0813300009999978   F   F   F
  0.7777799959999996  0.5555599930000028  0.0813300009999978   F   F   F
  0.1111100019999967  0.8888900279999987  0.0813300009999978   F   F   F
  0.4444400069999972  0.8888900279999987  0.0813300009999978   F   F   F
  0.7777799959999996  0.8888900279999987  0.0813300009999978   F   F   F
  0.2222200040000004  0.1111100019999967  0.0000000000000000   F   F   F
  0.5555599930000028  0.1111100019999967  0.0000000000000000   F   F   F
  0.8888900279999987  0.1111100019999967  0.0000000000000000   F   F   F
  0.2222200040000004  0.4444400069999972  0.0000000000000000   F   F   F
  0.5555599930000028  0.4444400069999972  0.0000000000000000   F   F   F
  0.8888900279999987  0.4444400069999972  0.0000000000000000   F   F   F
  0.2222200040000004  0.7777799959999996  0.0000000000000000   F   F   F
  0.5555599930000028  0.7777799959999996  0.0000000000000000   F   F   F
  0.8888900279999987  0.7777799959999996  0.0000000000000000   F   F   F
 
  0.00000000E+00  0.00000000E+00  0.00000000E+00
  0.00000000E+00  0.00000000E+00  0.00000000E+00
  0.00000000E+00  0.00000000E+00  0.00000000E+00
  0.00000000E+00  0.00000000E+00  0.00000000E+00
  0.00000000E+00  0.00000000E+00  0.00000000E+00
  0.00000000E+00  0.00000000E+00  0.00000000E+00
  0.00000000E+00  0.00000000E+00  0.00000000E+00
  0.00000000E+00  0.00000000E+00  0.00000000E+00
  0.00000000E+00  0.00000000E+00  0.00000000E+00
  0.00000000E+00  0.00000000E+00  0.00000000E+00
  0.00000000E+00  0.00000000E+00  0.00000000E+00
  0.00000000E+00  0.00000000E+00  0.00000000E+00
  0.00000000E+00  0.00000000E+00  0.00000000E+00
  0.00000000E+00  0.00000000E+00  0.00000000E+00
  0.00000000E+00  0.00000000E+00  0.00000000E+00
  0.00000000E+00  0.00000000E+00  0.00000000E+00
  0.00000000E+00  0.00000000E+00  0.00000000E+00
  0.00000000E+00  0.00000000E+00  0.00000000E+00
  0.00000000E+00  0.00000000E+00  0.00000000E+00
  0.00000000E+00  0.00000000E+00  0.00000000E+00
  0.00000000E+00  0.00000000E+00  0.00000000E+00
  0.00000000E+00  0.00000000E+00  0.00000000E+00
  0.00000000E+00  0.00000000E+00  0.00000000E+00
  0.00000000E+00  0.00000000E+00  0.00000000E+00
  0.00000000E+00  0.00000000E+00  0.00000000E+00
  0.00000000E+00  0.00000000E+00  0.00000000E+00
  0.00000000E+00  0.00000000E+00  0.00000000E+00
  0.00000000E+00  0.00000000E+00  0.00000000E+00
  0.00000000E+00  0.00000000E+00  0.00000000E+00
  0.00000000E+00  0.00000000E+00  0.00000000E+00
  0.00000000E+00  0.00000000E+00  0.00000000E+00
  0.00000000E+00  0.00000000E+00  0.00000000E+00
  0.00000000E+00  0.00000000E+00  0.00000000E+00
  0.00000000E+00  0.00000000E+00  0.00000000E+00
  0.00000000E+00  0.00000000E+00  0.00000000E+00
  0.00000000E+00  0.00000000E+00  0.00000000E+00
  0.00000000E+00  0.00000000E+00  0.00000000E+00
  0.00000000E+00  0.00000000E+00  0.00000000E+00
