Pt  C  H                                
   1.00000000000000     
     8.4216417639317811    0.0000000000000000    0.0000000000000000
     4.2108208819658905    7.2933557091369128    0.0000000000000000
     0.0000000000000000    0.0000000000000000   21.8762417060484431
   Pt   C    H 
    36     2     2
Selective dynamics
Direct
  0.0000000000000000  0.0000000000000000  0.3428376821200700   F   F   F
  0.3333333333333357  0.0000000000000000  0.3428376821200700   F   F   F
  0.6666666666666643  0.0000000000000000  0.3428376821200700   F   F   F
  0.0000000000000000  0.3333333333333357  0.3428376821200700   F   F   F
  0.3333333333333357  0.3333333333333357  0.3428376821200700   F   F   F
  0.6666666666666643  0.3333333333333357  0.3428376821200700   F   F   F
  0.0000000000000000  0.6666666666666643  0.3428376821200700   F   F   F
  0.3333333333333357  0.6666666666666643  0.3428376821200700   F   F   F
  0.6666666666666643  0.6666666666666643  0.3428376821200700   F   F   F
  0.1111111111111143  0.1111111111111143  0.4476125607066876   F   F   F
  0.4444444444444429  0.1111111111111143  0.4476125607066876   F   F   F
  0.7777777777777786  0.1111111111111143  0.4476125607066876   F   F   F
  0.1111111111111143  0.4444444444444429  0.4476125607066876   F   F   F
  0.4444444444444429  0.4444444444444429  0.4476125607066876   F   F   F
  0.7777777777777786  0.4444444444444429  0.4476125607066876   F   F   F
  0.1111111111111143  0.7777777777777786  0.4476125607066876   F   F   F
  0.4444444444444429  0.7777777777777786  0.4476125607066876   F   F   F
  0.7777777777777786  0.7777777777777786  0.4476125607066876   F   F   F
  0.8842536364027751  0.2244267039641841  0.5524490513231868   T   T   T
  0.2203751352282453  0.2253774006237563  0.5526623053769839   T   T   T
  0.5535643312289551  0.2225626282385917  0.5521425869853402   T   T   T
  0.8861407534491974  0.5563766059244131  0.5511593354074691   T   T   T
  0.2207196709653303  0.5528891394315849  0.5527104453745295   T   T   T
  0.5541652687957992  0.5547780322516402  0.5517017857859940   T   T   T
  0.8844185059636516  0.8898188475983986  0.5524434522040451   T   T   T
  0.2187933730435461  0.8901145790067275  0.5495793949901255   T   T   T
  0.5538886080618894  0.8900608222619866  0.5518202544953610   T   T   T
  0.9983336782555199  0.9991867661954217  0.6562667870107717   T   T   T
  0.3251112899623294  0.9978139878222052  0.6550805543766742   T   T   T
  0.6684192994771578  0.9940113489269180  0.6610330695548328   T   T   T
  0.9946920802806360  0.3349196309038049  0.6567081783649584   T   T   T
  0.3240792595228186  0.3365363412094595  0.6633496647638637   T   T   T
  0.6680112118874675  0.3341648946559985  0.6609457241583385   T   T   T
  0.9952676348575480  0.6674397730834372  0.6568203326598194   T   T   T
  0.3257845735706226  0.6748207905859402  0.6550329638859296   T   T   T
  0.6627509189210770  0.6670791595627392  0.6565365527895395   T   T   T
  0.5211589527934493  0.1541749818928082  0.7312645968607967   T   T   T
  0.5215446924850866  0.3203583872056583  0.7312817386112016   T   T   T
  0.4797898857195335  0.0996251749459347  0.7696770260873151   T   T   T
  0.4808220721446688  0.4161340647754912  0.7696947474806137   T   T   T
 
  0.00000000E+00  0.00000000E+00  0.00000000E+00
  0.00000000E+00  0.00000000E+00  0.00000000E+00
  0.00000000E+00  0.00000000E+00  0.00000000E+00
  0.00000000E+00  0.00000000E+00  0.00000000E+00
  0.00000000E+00  0.00000000E+00  0.00000000E+00
  0.00000000E+00  0.00000000E+00  0.00000000E+00
  0.00000000E+00  0.00000000E+00  0.00000000E+00
  0.00000000E+00  0.00000000E+00  0.00000000E+00
  0.00000000E+00  0.00000000E+00  0.00000000E+00
  0.00000000E+00  0.00000000E+00  0.00000000E+00
  0.00000000E+00  0.00000000E+00  0.00000000E+00
  0.00000000E+00  0.00000000E+00  0.00000000E+00
  0.00000000E+00  0.00000000E+00  0.00000000E+00
  0.00000000E+00  0.00000000E+00  0.00000000E+00
  0.00000000E+00  0.00000000E+00  0.00000000E+00
  0.00000000E+00  0.00000000E+00  0.00000000E+00
  0.00000000E+00  0.00000000E+00  0.00000000E+00
  0.00000000E+00  0.00000000E+00  0.00000000E+00
  0.00000000E+00  0.00000000E+00  0.00000000E+00
  0.00000000E+00  0.00000000E+00  0.00000000E+00
  0.00000000E+00  0.00000000E+00  0.00000000E+00
  0.00000000E+00  0.00000000E+00  0.00000000E+00
  0.00000000E+00  0.00000000E+00  0.00000000E+00
  0.00000000E+00  0.00000000E+00  0.00000000E+00
  0.00000000E+00  0.00000000E+00  0.00000000E+00
  0.00000000E+00  0.00000000E+00  0.00000000E+00
  0.00000000E+00  0.00000000E+00  0.00000000E+00
  0.00000000E+00  0.00000000E+00  0.00000000E+00
  0.00000000E+00  0.00000000E+00  0.00000000E+00
  0.00000000E+00  0.00000000E+00  0.00000000E+00
  0.00000000E+00  0.00000000E+00  0.00000000E+00
  0.00000000E+00  0.00000000E+00  0.00000000E+00
  0.00000000E+00  0.00000000E+00  0.00000000E+00
  0.00000000E+00  0.00000000E+00  0.00000000E+00
  0.00000000E+00  0.00000000E+00  0.00000000E+00
  0.00000000E+00  0.00000000E+00  0.00000000E+00
  0.00000000E+00  0.00000000E+00  0.00000000E+00
  0.00000000E+00  0.00000000E+00  0.00000000E+00
  0.00000000E+00  0.00000000E+00  0.00000000E+00
  0.00000000E+00  0.00000000E+00  0.00000000E+00
