CONTCAR\(7)\(0\0\1)                     
   1.00000000000000     
     8.2045001983999999    0.0000000000000000    0.0000000000000000
    -4.1022500991999999    7.1053055971000001    0.0000000000000000
     0.0000000000000000    0.0000000000000000   26.4547004699999988
   H    Ru
     1    36
Selective dynamics
Direct
  0.3332247908108534  0.6668245844202060  0.2815046332943301   T   T   T
  0.1101512200477065  0.2208095523872072  0.2413933579313175   T   T   T
  0.4430383163954779  0.2214820136541489  0.2412503245273087   T   T   T
  0.7778846666067293  0.2213507791493600  0.2412844321165026   T   T   T
  0.1082468269752219  0.5540438015324318  0.2422586541609034   T   T   T
  0.4454225780026961  0.5541833714928389  0.2422526681541217   T   T   T
  0.7778434326546654  0.5563471703566560  0.2412632469309673   T   T   T
  0.1101872433305594  0.8892026498911807  0.2414064232708111   T   T   T
  0.4455123104867886  0.8912027589373288  0.2422618292060058   T   T   T
  0.7785821539916137  0.8891730167850121  0.2413744398522709   T   T   T
  0.2221268388903181  0.1110115172208042  0.1620275011914832   T   T   T
  0.5557752161310157  0.1117264681749465  0.1621626438040847   T   T   T
  0.8886837210110445  0.1111203676146378  0.1620368465366216   T   T   T
  0.2220196699037742  0.4443984033127254  0.1622772320320821   T   T   T
  0.5556205447642310  0.4439710239808570  0.1621516502904862   T   T   T
  0.8880093484357142  0.4439457373929686  0.1621766340519321   T   T   T
  0.2221580824052330  0.7776214082053270  0.1622689798268528   T   T   T
  0.5552864194275093  0.7776270014915300  0.1622455638329663   T   T   T
  0.8886593455728919  0.7775229960934973  0.1620189384949243   T   T   T
  0.1111100019999967  0.2222200040000004  0.0813300009999978   F   F   F
  0.4444400069999972  0.2222200040000004  0.0813300009999978   F   F   F
  0.7777799959999996  0.2222200040000004  0.0813300009999978   F   F   F
  0.1111100019999967  0.5555599930000028  0.0813300009999978   F   F   F
  0.4444400069999972  0.5555599930000028  0.0813300009999978   F   F   F
  0.7777799959999996  0.5555599930000028  0.0813300009999978   F   F   F
  0.1111100019999967  0.8888900279999987  0.0813300009999978   F   F   F
  0.4444400069999972  0.8888900279999987  0.0813300009999978   F   F   F
  0.7777799959999996  0.8888900279999987  0.0813300009999978   F   F   F
  0.2222200040000004  0.1111100019999967  0.0000000000000000   F   F   F
  0.5555599930000028  0.1111100019999967  0.0000000000000000   F   F   F
  0.8888900279999987  0.1111100019999967  0.0000000000000000   F   F   F
  0.2222200040000004  0.4444400069999972  0.0000000000000000   F   F   F
  0.5555599930000028  0.4444400069999972  0.0000000000000000   F   F   F
  0.8888900279999987  0.4444400069999972  0.0000000000000000   F   F   F
  0.2222200040000004  0.7777799959999996  0.0000000000000000   F   F   F
  0.5555599930000028  0.7777799959999996  0.0000000000000000   F   F   F
  0.8888900279999987  0.7777799959999996  0.0000000000000000   F   F   F
 
  0.00000000E+00  0.00000000E+00  0.00000000E+00
  0.00000000E+00  0.00000000E+00  0.00000000E+00
  0.00000000E+00  0.00000000E+00  0.00000000E+00
  0.00000000E+00  0.00000000E+00  0.00000000E+00
  0.00000000E+00  0.00000000E+00  0.00000000E+00
  0.00000000E+00  0.00000000E+00  0.00000000E+00
  0.00000000E+00  0.00000000E+00  0.00000000E+00
  0.00000000E+00  0.00000000E+00  0.00000000E+00
  0.00000000E+00  0.00000000E+00  0.00000000E+00
  0.00000000E+00  0.00000000E+00  0.00000000E+00
  0.00000000E+00  0.00000000E+00  0.00000000E+00
  0.00000000E+00  0.00000000E+00  0.00000000E+00
  0.00000000E+00  0.00000000E+00  0.00000000E+00
  0.00000000E+00  0.00000000E+00  0.00000000E+00
  0.00000000E+00  0.00000000E+00  0.00000000E+00
  0.00000000E+00  0.00000000E+00  0.00000000E+00
  0.00000000E+00  0.00000000E+00  0.00000000E+00
  0.00000000E+00  0.00000000E+00  0.00000000E+00
  0.00000000E+00  0.00000000E+00  0.00000000E+00
  0.00000000E+00  0.00000000E+00  0.00000000E+00
  0.00000000E+00  0.00000000E+00  0.00000000E+00
  0.00000000E+00  0.00000000E+00  0.00000000E+00
  0.00000000E+00  0.00000000E+00  0.00000000E+00
  0.00000000E+00  0.00000000E+00  0.00000000E+00
  0.00000000E+00  0.00000000E+00  0.00000000E+00
  0.00000000E+00  0.00000000E+00  0.00000000E+00
  0.00000000E+00  0.00000000E+00  0.00000000E+00
  0.00000000E+00  0.00000000E+00  0.00000000E+00
  0.00000000E+00  0.00000000E+00  0.00000000E+00
  0.00000000E+00  0.00000000E+00  0.00000000E+00
  0.00000000E+00  0.00000000E+00  0.00000000E+00
  0.00000000E+00  0.00000000E+00  0.00000000E+00
  0.00000000E+00  0.00000000E+00  0.00000000E+00
  0.00000000E+00  0.00000000E+00  0.00000000E+00
  0.00000000E+00  0.00000000E+00  0.00000000E+00
  0.00000000E+00  0.00000000E+00  0.00000000E+00
  0.00000000E+00  0.00000000E+00  0.00000000E+00
