O                                       
   2.80000000000000     
     4.0000000000000000    0.0000000000000000    0.0000000000000000
    -2.0000000000000000    3.4641016151377499    0.0000000000000000
     0.0000000000000000    0.0000000000000000    8.1649658092772590
   O    Pt
     1    64
Selective dynamics
Direct
  0.1671482845268315  0.0833506015176937  0.3479081467341197   T   T   T
  0.0000000000000000  0.0000000000000000  0.0000000000000000   F   F   F
  0.2500000000000000  0.0000000000000000  0.0000000000000000   F   F   F
  0.5000000000000000  0.0000000000000000  0.0000000000000000   F   F   F
  0.7500000000000000  0.0000000000000000  0.0000000000000000   F   F   F
  0.0000000000000000  0.2500000000000000  0.0000000000000000   F   F   F
  0.2500000000000000  0.2500000000000000  0.0000000000000000   F   F   F
  0.5000000000000000  0.2500000000000000  0.0000000000000000   F   F   F
  0.7500000000000000  0.2500000000000000  0.0000000000000000   F   F   F
  0.0000000000000000  0.5000000000000000  0.0000000000000000   F   F   F
  0.2500000000000000  0.5000000000000000  0.0000000000000000   F   F   F
  0.5000000000000000  0.5000000000000000  0.0000000000000000   F   F   F
  0.7500000000000000  0.5000000000000000  0.0000000000000000   F   F   F
  0.0000000000000000  0.7500000000000000  0.0000000000000000   F   F   F
  0.2500000000000000  0.7500000000000000  0.0000000000000000   F   F   F
  0.5000000000000000  0.7500000000000000  0.0000000000000000   F   F   F
  0.7500000000000000  0.7500000000000000  0.0000000000000000   F   F   F
  0.1666666666666643  0.0833333333333357  0.1000000000000014   F   F   F
  0.4166666666666643  0.0833333333333357  0.1000000000000014   F   F   F
  0.6666666666666643  0.0833333333333357  0.1000000000000014   F   F   F
  0.9166666666666643  0.0833333333333357  0.1000000000000014   F   F   F
  0.1666666666666643  0.3333333333333357  0.1000000000000014   F   F   F
  0.4166666666666643  0.3333333333333357  0.1000000000000014   F   F   F
  0.6666666666666643  0.3333333333333357  0.1000000000000014   F   F   F
  0.9166666666666643  0.3333333333333357  0.1000000000000014   F   F   F
  0.1666666666666643  0.5833333333333357  0.1000000000000014   F   F   F
  0.4166666666666643  0.5833333333333357  0.1000000000000014   F   F   F
  0.6666666666666643  0.5833333333333357  0.1000000000000014   F   F   F
  0.9166666666666643  0.5833333333333357  0.1000000000000014   F   F   F
  0.1666666666666643  0.8333333333333357  0.1000000000000014   F   F   F
  0.4166666666666643  0.8333333333333357  0.1000000000000014   F   F   F
  0.6666666666666643  0.8333333333333357  0.1000000000000014   F   F   F
  0.9166666666666643  0.8333333333333357  0.1000000000000014   F   F   F
  0.0839427011232203  0.1666892964934803  0.1989241359393432   F   F   F
  0.3333042447662962  0.1665951028253474  0.1989818303331603   F   F   F
  0.5838418075956184  0.1665976372520888  0.1978901296799052   F   F   F
  0.8333587987563646  0.1665951094690641  0.1979037027356796   F   F   F
  0.3320561274781824  0.4135279346810634  0.1996772783542724   F   F   F
  0.0841061805419301  0.4172674128935299  0.1978725933731056   F   F   F
  0.5837215932436024  0.4172609898140820  0.1979088002525344   F   F   F
  0.8337643478936130  0.4169814646230563  0.1983806647470701   F   F   F
  0.0841537013428990  0.6668871939159970  0.1978901471280352   F   F   F
  0.3341764021556202  0.6669482014975046  0.1977620061064513   F   F   F
  0.5834008222024494  0.6670502819064836  0.1977394497640930   F   F   F
  0.8332553446302455  0.6668142392928047  0.1978963646598331   F   F   F
  0.0839185539364706  0.9172752676654810  0.1988138746066070   F   F   F
  0.3320575070688392  0.9183189520663149  0.1996836202520385   F   F   F
  0.5835089968568425  0.9163531195753194  0.1977462416039728   F   F   F
  0.8367686958976606  0.9184193933717282  0.1996778134595232   F   F   F
  0.9894680789495780  0.9947075136408188  0.3002693094413758   F   F   F
  0.2561762895802957  0.9946459707172082  0.3004522710838842   F   F   F
  0.5033518621015105  0.9999147294693955  0.2980746916403163   F   F   F
  0.7477140254801071  0.9999146977581432  0.2982209690419069   F   F   F
  0.9987670980288854  0.2528281563884391  0.2970026925681069   F   F   F
  0.5052083612776528  0.2527418946035809  0.2970789764145039   F   F   F
  0.7510421085212116  0.2508806007241873  0.2982550332215084   F   F   F
  0.2563247299201947  0.2612664677495218  0.3004455935923076   F   F   F
  0.0004623192216897  0.5003283703469279  0.2982963576241318   F   F   F
  0.2512092983616299  0.5032446905924317  0.2982573941279512   F   F   F
  0.5033377408300339  0.5034717417916994  0.2981786594520912   F   F   F
  0.7509668482755743  0.5003173770189093  0.2983614114661179   F   F   F
  0.9985921275562362  0.7459760970398364  0.2969400783156004   F   F   F
  0.2513832194226993  0.7476955318529761  0.2982412572767572   F   F   F
  0.5006853757493488  0.7503177177082421  0.2986326394868684   F   F   F
  0.7476335505093061  0.7478704461524046  0.2982175492982719   F   F   F
 
  0.00000000E+00  0.00000000E+00  0.00000000E+00
  0.00000000E+00  0.00000000E+00  0.00000000E+00
  0.00000000E+00  0.00000000E+00  0.00000000E+00
  0.00000000E+00  0.00000000E+00  0.00000000E+00
  0.00000000E+00  0.00000000E+00  0.00000000E+00
  0.00000000E+00  0.00000000E+00  0.00000000E+00
  0.00000000E+00  0.00000000E+00  0.00000000E+00
  0.00000000E+00  0.00000000E+00  0.00000000E+00
  0.00000000E+00  0.00000000E+00  0.00000000E+00
  0.00000000E+00  0.00000000E+00  0.00000000E+00
  0.00000000E+00  0.00000000E+00  0.00000000E+00
  0.00000000E+00  0.00000000E+00  0.00000000E+00
  0.00000000E+00  0.00000000E+00  0.00000000E+00
  0.00000000E+00  0.00000000E+00  0.00000000E+00
  0.00000000E+00  0.00000000E+00  0.00000000E+00
  0.00000000E+00  0.00000000E+00  0.00000000E+00
  0.00000000E+00  0.00000000E+00  0.00000000E+00
  0.00000000E+00  0.00000000E+00  0.00000000E+00
  0.00000000E+00  0.00000000E+00  0.00000000E+00
  0.00000000E+00  0.00000000E+00  0.00000000E+00
  0.00000000E+00  0.00000000E+00  0.00000000E+00
  0.00000000E+00  0.00000000E+00  0.00000000E+00
  0.00000000E+00  0.00000000E+00  0.00000000E+00
  0.00000000E+00  0.00000000E+00  0.00000000E+00
  0.00000000E+00  0.00000000E+00  0.00000000E+00
  0.00000000E+00  0.00000000E+00  0.00000000E+00
  0.00000000E+00  0.00000000E+00  0.00000000E+00
  0.00000000E+00  0.00000000E+00  0.00000000E+00
  0.00000000E+00  0.00000000E+00  0.00000000E+00
  0.00000000E+00  0.00000000E+00  0.00000000E+00
  0.00000000E+00  0.00000000E+00  0.00000000E+00
  0.00000000E+00  0.00000000E+00  0.00000000E+00
  0.00000000E+00  0.00000000E+00  0.00000000E+00
  0.00000000E+00  0.00000000E+00  0.00000000E+00
  0.00000000E+00  0.00000000E+00  0.00000000E+00
  0.00000000E+00  0.00000000E+00  0.00000000E+00
  0.00000000E+00  0.00000000E+00  0.00000000E+00
  0.00000000E+00  0.00000000E+00  0.00000000E+00
  0.00000000E+00  0.00000000E+00  0.00000000E+00
  0.00000000E+00  0.00000000E+00  0.00000000E+00
  0.00000000E+00  0.00000000E+00  0.00000000E+00
  0.00000000E+00  0.00000000E+00  0.00000000E+00
  0.00000000E+00  0.00000000E+00  0.00000000E+00
  0.00000000E+00  0.00000000E+00  0.00000000E+00
  0.00000000E+00  0.00000000E+00  0.00000000E+00
  0.00000000E+00  0.00000000E+00  0.00000000E+00
  0.00000000E+00  0.00000000E+00  0.00000000E+00
  0.00000000E+00  0.00000000E+00  0.00000000E+00
  0.00000000E+00  0.00000000E+00  0.00000000E+00
  0.00000000E+00  0.00000000E+00  0.00000000E+00
  0.00000000E+00  0.00000000E+00  0.00000000E+00
  0.00000000E+00  0.00000000E+00  0.00000000E+00
  0.00000000E+00  0.00000000E+00  0.00000000E+00
  0.00000000E+00  0.00000000E+00  0.00000000E+00
  0.00000000E+00  0.00000000E+00  0.00000000E+00
  0.00000000E+00  0.00000000E+00  0.00000000E+00
  0.00000000E+00  0.00000000E+00  0.00000000E+00
  0.00000000E+00  0.00000000E+00  0.00000000E+00
  0.00000000E+00  0.00000000E+00  0.00000000E+00
  0.00000000E+00  0.00000000E+00  0.00000000E+00
  0.00000000E+00  0.00000000E+00  0.00000000E+00
  0.00000000E+00  0.00000000E+00  0.00000000E+00
  0.00000000E+00  0.00000000E+00  0.00000000E+00
  0.00000000E+00  0.00000000E+00  0.00000000E+00
  0.00000000E+00  0.00000000E+00  0.00000000E+00
