Pt  C  H 
 1.0000000000000000
     8.4216417639317811    0.0000000000000000    0.0000000000000000
     4.2108208819658905    7.2933557091369128    0.0000000000000000
     0.0000000000000000    0.0000000000000000   21.8762417060484431
  36   1   1
Selective dynamics
Cartesian
  0.0000000000000000  0.0000000000000000  7.5000000000000533   F   F   F
  2.8072139213106135  0.0000000000000000  7.5000000000000533   F   F   F
  5.6144278426211676  0.0000000000000000  7.5000000000000533   F   F   F
  1.4036069606553068  2.4311185697123214  7.5000000000000533   F   F   F
  4.2108208819659207  2.4311185697123214  7.5000000000000533   F   F   F
  7.0180348032764748  2.4311185697123214  7.5000000000000533   F   F   F
  2.8072139213105838  4.8622371394245913  7.5000000000000533   F   F   F
  5.6144278426211969  4.8622371394245913  7.5000000000000533   F   F   F
  8.4216417639317509  4.8622371394245913  7.5000000000000533   F   F   F
  1.4036069606553370  0.8103728565707913  9.7920805686827794   F   F   F
  4.2108208819658914  0.8103728565707913  9.7920805686827794   F   F   F
  7.0180348032765041  0.8103728565707913  9.7920805686827794   F   F   F
  2.8072139213106144  3.2414914262830612  9.7920805686827794   F   F   F
  5.6144278426211685  3.2414914262830612  9.7920805686827794   F   F   F
  8.4216417639317811  3.2414914262830612  9.7920805686827794   F   F   F
  4.2108208819659207  5.6726099959953826  9.7920805686827794   F   F   F
  7.0180348032764748  5.6726099959953826  9.7920805686827794   F   F   F
  9.8252487245870874  5.6726099959953826  9.7920805686827794   F   F   F
  8.4083009854855035  1.6242913013578857 12.0751233614986617   T   T   T
  2.8171493714255900  1.6241136187624277 12.0751441781704045   T   T   T
  5.6126979975107592  1.6264131049798030 12.0844521288512681   T   T   T
  9.8224749324653189  4.0459291390662679 12.0542302041610565   T   T   T
  4.2155615578647714  4.0447881037197790 12.0844828857168540   T   T   T
  7.0088264737320802  4.0453107490286548 12.0852668386091420   T   T   T
 11.2287861290066076  6.4811880928840564 12.0545004477698381   T   T   T
  5.6118667587650668  6.4668312477858043 12.0745988086651632   T   T   T
  8.4169986726353052  6.4812715699235559 12.0540402394439372   T   T   T
 12.6265746561553875  7.2850750926857843 14.3606755240851083   T   T   T
  7.0107751738430091  7.2842382285780651 14.3595882552348861   T   T   T
  9.8194147380362935  7.2563310319191530 14.3557728109789000   T   T   T
  9.8191686991254912  2.4219648986031324 14.3598667918468443   T   T   T
  4.1601558423201999  2.3980344341112403 14.4959370040472137   T   T   T
  7.0583170916855300  2.3979934051802241 14.4979590624143064   T   T   T
 11.1964165513007252  4.8707099572728074 14.3550838870592390   T   T   T
  5.6085142188139265  4.9053143005940942 14.4982171218267197   T   T   T
  8.4443396092306511  4.8711784032594512 14.3553049818641334   T   T   T
  5.6076695497128330  3.2311909203605169 15.5801295292762401   T   T   T
  5.6063411293295289  3.2295046676307289 16.6809875423305130   T   T   T
