 C  H                                   
   1.00000000000000     
    20.0000000000000000    0.0000000000000000    0.0000000000000000
     0.0000000000000000   20.0000000000000000    0.0000000000000000
     0.0000000000000000    0.0000000000000000   20.0000000000000000
   C    H 
     2     2
Direct
  0.4994999999999976  0.5000000000000000  0.5301922391991098
  0.5000000000000000  0.5000000000000000  0.4698077608008902
  0.5000000000000000  0.5000000000000000  0.4162582988274934
  0.5000000000000000  0.5000000000000000  0.5842417011725090
 
  0.00000000E+00  0.00000000E+00  0.00000000E+00
  0.00000000E+00  0.00000000E+00  0.00000000E+00
  0.00000000E+00  0.00000000E+00  0.00000000E+00
  0.00000000E+00  0.00000000E+00  0.00000000E+00
