 C  H                                   
   1.00000000000000     
    20.0000000000000000    0.0000000000000000    0.0000000000000000
     0.0000000000000000   20.0000000000000000    0.0000000000000000
     0.0000000000000000    0.0000000000000000   20.0000000000000000
   C    H 
     2     4
Direct
  0.5000000000000000  0.5000000000000000  0.5333252534519843
  0.5000000000000000  0.5000000000000000  0.4666747465480157
  0.5000000000000000  0.5464376894862610  0.5620402855344011
  0.5000000000000000  0.4535623105137390  0.5620402855344011
  0.5000000000000000  0.5464376894862610  0.4379597144655989
  0.5000000000000000  0.4535623105137390  0.4384597144656013
 
  0.00000000E+00  0.00000000E+00  0.00000000E+00
  0.00000000E+00  0.00000000E+00  0.00000000E+00
  0.00000000E+00  0.00000000E+00  0.00000000E+00
  0.00000000E+00  0.00000000E+00  0.00000000E+00
  0.00000000E+00  0.00000000E+00  0.00000000E+00
  0.00000000E+00  0.00000000E+00  0.00000000E+00
