 C  H                                   
   1.00000000000000     
    20.0000000000000000    0.0000000000000000    0.0000000000000000
     0.0000000000000000   20.0000000000000000    0.0000000000000000
     0.0000000000000000    0.0000000000000000   20.0000000000000000
   C    H 
     2     6
Direct
  0.5000000000000000  0.4999996734551431  0.5382046045025035
  0.5000000000000000  0.5000003265448569  0.4617953954974965
  0.5000000000000000  0.5512030815518827  0.5583291258357264
  0.4556517794556072  0.4744006727369197  0.5583283839083890
  0.5443482205443928  0.4744006727369197  0.5583283839083890
  0.5000000000000000  0.4487969184481173  0.4416708741642736
  0.4556517794556072  0.5255993272630803  0.4416716160916110
  0.5443482205443928  0.5255993272630803  0.4416716160916110
 
  0.00000000E+00  0.00000000E+00  0.00000000E+00
  0.00000000E+00  0.00000000E+00  0.00000000E+00
  0.00000000E+00  0.00000000E+00  0.00000000E+00
  0.00000000E+00  0.00000000E+00  0.00000000E+00
  0.00000000E+00  0.00000000E+00  0.00000000E+00
  0.00000000E+00  0.00000000E+00  0.00000000E+00
  0.00000000E+00  0.00000000E+00  0.00000000E+00
  0.00000000E+00  0.00000000E+00  0.00000000E+00
