Pt  C  H 
 1.0000000000000000
     8.4216417639317811    0.0000000000000000    0.0000000000000000
     4.2108208819658905    7.2933557091369128    0.0000000000000000
     0.0000000000000000    0.0000000000000000   21.8762417060484431
  36   2   2
Selective dynamics
Cartesian
  0.0000000000000000  0.0000000000000000  7.5000000000000533   F   F   F
  2.8072139213106135  0.0000000000000000  7.5000000000000533   F   F   F
  5.6144278426211676  0.0000000000000000  7.5000000000000533   F   F   F
  1.4036069606553068  2.4311185697123214  7.5000000000000533   F   F   F
  4.2108208819659207  2.4311185697123214  7.5000000000000533   F   F   F
  7.0180348032764748  2.4311185697123214  7.5000000000000533   F   F   F
  2.8072139213105838  4.8622371394245913  7.5000000000000533   F   F   F
  5.6144278426211969  4.8622371394245913  7.5000000000000533   F   F   F
  8.4216417639317509  4.8622371394245913  7.5000000000000533   F   F   F
  1.4036069606553370  0.8103728565707913  9.7920805686827794   F   F   F
  4.2108208819658914  0.8103728565707913  9.7920805686827794   F   F   F
  7.0180348032765041  0.8103728565707913  9.7920805686827794   F   F   F
  2.8072139213106144  3.2414914262830612  9.7920805686827794   F   F   F
  5.6144278426211685  3.2414914262830612  9.7920805686827794   F   F   F
  8.4216417639317811  3.2414914262830612  9.7920805686827794   F   F   F
  4.2108208819659207  5.6726099959953826  9.7920805686827794   F   F   F
  7.0180348032764748  5.6726099959953826  9.7920805686827794   F   F   F
  9.8252487245870874  5.6726099959953826  9.7920805686827794   F   F   F
  8.3918880057613432  1.6368237826399821 12.0855089770232667   T   T   T
  2.8049443074399907  1.6437575515497183 12.0901741742488085   T   T   T
  5.5990918534330056  1.6232284153044740 12.0788046890941310   T   T   T
  9.8055622084335319  4.0578524952490298 12.0572948399188729   T   T   T
  4.1869391328535457  4.0324171615931190 12.0912272964708780   T   T   T
  7.0030522948723366  4.0461935288262660 12.0691616155129555   T   T   T
 11.1951236112517947  6.4897653722293915 12.0853864893395109   T   T   T
  5.5907124647188393  6.4919222465846911 12.0227316814678389   T   T   T
  8.4125381308205380  6.4915301795235374 12.0717532656336122   T   T   T
  4.1933633352842197  7.2874245057254461 14.3566508562993800   T   T   T
  6.9395867937118698  7.2774123447397505 14.3307005444763256   T   T   T
  5.6039707513015262 -0.0436773624939028 14.4609192052726989   T   T   T
  1.3655851772018683  2.4426880021542794 14.3663068402505587   T   T   T
  4.1463736799266453  2.4544792454920499 14.5115976020005331   T   T   T
  7.0328596372435959  2.4371834422324858 14.4590084162670767   T   T   T
  2.7706150500284412  4.8678756795231202 14.3687603547134302   T   T   T
  5.5851904474110707  4.9217080656642462 14.3296594433979614   T   T   T
  8.3904016728809410  4.8652455968431774 14.3625523176797625   T   T   T
  5.0382172357232307  1.1244529843940043 15.9973210720028387   T   T   T
  5.7412343505478907  2.3364876722962991 15.9976960690779180   T   T   T
  4.4601223065195397  0.7266018384657217 16.8376406582786586   T   T   T
  5.8015772534477517  3.0350137570966984 16.8380283357618019   T   T   T
