 C  H 
 1.0000000000000000
    20.0000000000000000    0.0000000000000000    0.0000000000000000
     0.0000000000000000   20.0000000000000000    0.0000000000000000
     0.0000000000000000    0.0000000000000000   20.0000000000000000
   2   2
Cartesian
  9.9900000000000002 10.0000000000000000 10.6038447839821970
 10.0000000000000000 10.0000000000000000  9.3961552160178048
 10.0000000000000000 10.0000000000000000  8.3251659765498669
 10.0000000000000000 10.0000000000000000 11.6848340234501311
