Pt  H                                   
   1.00000000000000     
     8.4216417639317811    0.0000000000000000    0.0000000000000000
     4.2108208819658905    7.2933557091369128    0.0000000000000000
     0.0000000000000000    0.0000000000000000   21.8762417060484431
   Pt   H 
    36     1
Selective dynamics
Direct
  0.0000000000000000  0.0000000000000000  0.3428376821200700   F   F   F
  0.3333333333333357  0.0000000000000000  0.3428376821200700   F   F   F
  0.6666666666666643  0.0000000000000000  0.3428376821200700   F   F   F
  0.0000000000000000  0.3333333333333357  0.3428376821200700   F   F   F
  0.3333333333333357  0.3333333333333357  0.3428376821200700   F   F   F
  0.6666666666666643  0.3333333333333357  0.3428376821200700   F   F   F
  0.0000000000000000  0.6666666666666643  0.3428376821200700   F   F   F
  0.3333333333333357  0.6666666666666643  0.3428376821200700   F   F   F
  0.6666666666666643  0.6666666666666643  0.3428376821200700   F   F   F
  0.1111111111111143  0.1111111111111143  0.4476125607066876   F   F   F
  0.4444444444444429  0.1111111111111143  0.4476125607066876   F   F   F
  0.7777777777777786  0.1111111111111143  0.4476125607066876   F   F   F
  0.1111111111111143  0.4444444444444429  0.4476125607066876   F   F   F
  0.4444444444444429  0.4444444444444429  0.4476125607066876   F   F   F
  0.7777777777777786  0.4444444444444429  0.4476125607066876   F   F   F
  0.1111111111111143  0.7777777777777786  0.4476125607066876   F   F   F
  0.4444444444444429  0.7777777777777786  0.4476125607066876   F   F   F
  0.7777777777777786  0.7777777777777786  0.4476125607066876   F   F   F
  0.8895735432239320  0.2219212126193426  0.5519748345621096   T   T   T
  0.2218474549735774  0.2219256439195263  0.5519791596749997   T   T   T
  0.5556004697974402  0.2221242573021698  0.5511166155312353   T   T   T
  0.8891471299718390  0.5550208357695112  0.5514365736326567   T   T   T
  0.2221073075939728  0.5555949720094233  0.5511248225299141   T   T   T
  0.5556181706456016  0.5555838234945085  0.5511238286999429   T   T   T
  0.8891942021797021  0.8892797689331502  0.5514346838959980   T   T   T
  0.2219234066334153  0.8894771480527552  0.5519349788458925   T   T   T
  0.5548547157642432  0.8892938080541626  0.5514332364943542   T   T   T
  0.9970311889039252  0.9971435774031789  0.6582991949457551   T   T   T
  0.3391717390496254  0.9971423268935595  0.6582959490556419   T   T   T
  0.6665176214345223  0.0003021571638726  0.6564212248839425   T   T   T
  0.9968793601012038  0.3395763856234595  0.6582984404283749   T   T   T
  0.3345251349455722  0.3346441774084568  0.6563989331678073   T   T   T
  0.6641633205928699  0.3346433898781598  0.6564024047332566   T   T   T
  0.0001374702623593  0.6667841326346888  0.6564208939534950   T   T   T
  0.3344931719714808  0.6643434547485114  0.6563977569363928   T   T   T
  0.6664067948632351  0.6667783024326397  0.6564226341242829   T   T   T
  0.1105711828467193  0.1120325043534649  0.6970066307726199   T   T   T
 
  0.00000000E+00  0.00000000E+00  0.00000000E+00
  0.00000000E+00  0.00000000E+00  0.00000000E+00
  0.00000000E+00  0.00000000E+00  0.00000000E+00
  0.00000000E+00  0.00000000E+00  0.00000000E+00
  0.00000000E+00  0.00000000E+00  0.00000000E+00
  0.00000000E+00  0.00000000E+00  0.00000000E+00
  0.00000000E+00  0.00000000E+00  0.00000000E+00
  0.00000000E+00  0.00000000E+00  0.00000000E+00
  0.00000000E+00  0.00000000E+00  0.00000000E+00
  0.00000000E+00  0.00000000E+00  0.00000000E+00
  0.00000000E+00  0.00000000E+00  0.00000000E+00
  0.00000000E+00  0.00000000E+00  0.00000000E+00
  0.00000000E+00  0.00000000E+00  0.00000000E+00
  0.00000000E+00  0.00000000E+00  0.00000000E+00
  0.00000000E+00  0.00000000E+00  0.00000000E+00
  0.00000000E+00  0.00000000E+00  0.00000000E+00
  0.00000000E+00  0.00000000E+00  0.00000000E+00
  0.00000000E+00  0.00000000E+00  0.00000000E+00
  0.00000000E+00  0.00000000E+00  0.00000000E+00
  0.00000000E+00  0.00000000E+00  0.00000000E+00
  0.00000000E+00  0.00000000E+00  0.00000000E+00
  0.00000000E+00  0.00000000E+00  0.00000000E+00
  0.00000000E+00  0.00000000E+00  0.00000000E+00
  0.00000000E+00  0.00000000E+00  0.00000000E+00
  0.00000000E+00  0.00000000E+00  0.00000000E+00
  0.00000000E+00  0.00000000E+00  0.00000000E+00
  0.00000000E+00  0.00000000E+00  0.00000000E+00
  0.00000000E+00  0.00000000E+00  0.00000000E+00
  0.00000000E+00  0.00000000E+00  0.00000000E+00
  0.00000000E+00  0.00000000E+00  0.00000000E+00
  0.00000000E+00  0.00000000E+00  0.00000000E+00
  0.00000000E+00  0.00000000E+00  0.00000000E+00
  0.00000000E+00  0.00000000E+00  0.00000000E+00
  0.00000000E+00  0.00000000E+00  0.00000000E+00
  0.00000000E+00  0.00000000E+00  0.00000000E+00
  0.00000000E+00  0.00000000E+00  0.00000000E+00
  0.00000000E+00  0.00000000E+00  0.00000000E+00
