Pt                                      
   1.00000000000000     
     8.4216417639317811    0.0000000000000000    0.0000000000000000
     4.2108208819658905    7.2933557091369128    0.0000000000000000
     0.0000000000000000    0.0000000000000000   21.8762417060484431
   Pt
    36
Selective dynamics
Direct
  0.0000000000000000  0.0000000000000000  0.3428376821200700   F   F   F
  0.3333333333333357  0.0000000000000000  0.3428376821200700   F   F   F
  0.6666666666666643  0.0000000000000000  0.3428376821200700   F   F   F
  0.0000000000000000  0.3333333333333357  0.3428376821200700   F   F   F
  0.3333333333333357  0.3333333333333357  0.3428376821200700   F   F   F
  0.6666666666666643  0.3333333333333357  0.3428376821200700   F   F   F
  0.0000000000000000  0.6666666666666643  0.3428376821200700   F   F   F
  0.3333333333333357  0.6666666666666643  0.3428376821200700   F   F   F
  0.6666666666666643  0.6666666666666643  0.3428376821200700   F   F   F
  0.1111111111111143  0.1111111111111143  0.4476125607066876   F   F   F
  0.4444444444444429  0.1111111111111143  0.4476125607066876   F   F   F
  0.7777777777777786  0.1111111111111143  0.4476125607066876   F   F   F
  0.1111111111111143  0.4444444444444429  0.4476125607066876   F   F   F
  0.4444444444444429  0.4444444444444429  0.4476125607066876   F   F   F
  0.7777777777777786  0.4444444444444429  0.4476125607066876   F   F   F
  0.1111111111111143  0.7777777777777786  0.4476125607066876   F   F   F
  0.4444444444444429  0.7777777777777786  0.4476125607066876   F   F   F
  0.7777777777777786  0.7777777777777786  0.4476125607066876   F   F   F
  0.8888888888888857  0.2222222222222214  0.5512769349407662   T   T   T
  0.2222222222222214  0.2222222222222214  0.5512769349407662   T   T   T
  0.5555555555555571  0.2222222222222214  0.5512769349407662   T   T   T
  0.8888888888888857  0.5555555555555571  0.5512769349407662   T   T   T
  0.2222222222222214  0.5555555555555571  0.5512769349407662   T   T   T
  0.5555555555555571  0.5555555555555571  0.5512769349407662   T   T   T
  0.8888888888888857  0.8888888888888857  0.5512769349407662   T   T   T
  0.2222222222222214  0.8888888888888857  0.5512769349407662   T   T   T
  0.5555555555555571  0.8888888888888857  0.5512769349407662   T   T   T
  0.0000000000000000  0.0000000000000000  0.6564206865125257   T   T   T
  0.3333333333333357  0.0000000000000000  0.6564206865125257   T   T   T
  0.6666666666666643  0.0000000000000000  0.6564206865125257   T   T   T
  0.0000000000000000  0.3333333333333357  0.6564206865125257   T   T   T
  0.3333333333333357  0.3333333333333357  0.6564206865125257   T   T   T
  0.6666666666666643  0.3333333333333357  0.6564206865125257   T   T   T
  0.0000000000000000  0.6666666666666643  0.6564206865125257   T   T   T
  0.3333333333333357  0.6666666666666643  0.6564206865125257   T   T   T
  0.6666666666666643  0.6666666666666643  0.6564206865125257   T   T   T
 
  0.00000000E+00  0.00000000E+00  0.00000000E+00
  0.00000000E+00  0.00000000E+00  0.00000000E+00
  0.00000000E+00  0.00000000E+00  0.00000000E+00
  0.00000000E+00  0.00000000E+00  0.00000000E+00
  0.00000000E+00  0.00000000E+00  0.00000000E+00
  0.00000000E+00  0.00000000E+00  0.00000000E+00
  0.00000000E+00  0.00000000E+00  0.00000000E+00
  0.00000000E+00  0.00000000E+00  0.00000000E+00
  0.00000000E+00  0.00000000E+00  0.00000000E+00
  0.00000000E+00  0.00000000E+00  0.00000000E+00
  0.00000000E+00  0.00000000E+00  0.00000000E+00
  0.00000000E+00  0.00000000E+00  0.00000000E+00
  0.00000000E+00  0.00000000E+00  0.00000000E+00
  0.00000000E+00  0.00000000E+00  0.00000000E+00
  0.00000000E+00  0.00000000E+00  0.00000000E+00
  0.00000000E+00  0.00000000E+00  0.00000000E+00
  0.00000000E+00  0.00000000E+00  0.00000000E+00
  0.00000000E+00  0.00000000E+00  0.00000000E+00
  0.00000000E+00  0.00000000E+00  0.00000000E+00
  0.00000000E+00  0.00000000E+00  0.00000000E+00
  0.00000000E+00  0.00000000E+00  0.00000000E+00
  0.00000000E+00  0.00000000E+00  0.00000000E+00
  0.00000000E+00  0.00000000E+00  0.00000000E+00
  0.00000000E+00  0.00000000E+00  0.00000000E+00
  0.00000000E+00  0.00000000E+00  0.00000000E+00
  0.00000000E+00  0.00000000E+00  0.00000000E+00
  0.00000000E+00  0.00000000E+00  0.00000000E+00
  0.00000000E+00  0.00000000E+00  0.00000000E+00
  0.00000000E+00  0.00000000E+00  0.00000000E+00
  0.00000000E+00  0.00000000E+00  0.00000000E+00
  0.00000000E+00  0.00000000E+00  0.00000000E+00
  0.00000000E+00  0.00000000E+00  0.00000000E+00
  0.00000000E+00  0.00000000E+00  0.00000000E+00
  0.00000000E+00  0.00000000E+00  0.00000000E+00
  0.00000000E+00  0.00000000E+00  0.00000000E+00
  0.00000000E+00  0.00000000E+00  0.00000000E+00
