H                                       
   2.80000000000000     
     4.0000000000000000    0.0000000000000000    0.0000000000000000
    -2.0000000000000000    3.4641016151377499    0.0000000000000000
     0.0000000000000000    0.0000000000000000    8.1649658092772590
   H    Pt
     1    64
Selective dynamics
Direct
  0.1669795671337653  0.0826428752851314  0.3362861022150619   T   T   T
  0.0000000000000000  0.0000000000000000  0.0000000000000000   F   F   F
  0.2500000000000000  0.0000000000000000  0.0000000000000000   F   F   F
  0.5000000000000000  0.0000000000000000  0.0000000000000000   F   F   F
  0.7500000000000000  0.0000000000000000  0.0000000000000000   F   F   F
  0.0000000000000000  0.2500000000000000  0.0000000000000000   F   F   F
  0.2500000000000000  0.2500000000000000  0.0000000000000000   F   F   F
  0.5000000000000000  0.2500000000000000  0.0000000000000000   F   F   F
  0.7500000000000000  0.2500000000000000  0.0000000000000000   F   F   F
  0.0000000000000000  0.5000000000000000  0.0000000000000000   F   F   F
  0.2500000000000000  0.5000000000000000  0.0000000000000000   F   F   F
  0.5000000000000000  0.5000000000000000  0.0000000000000000   F   F   F
  0.7500000000000000  0.5000000000000000  0.0000000000000000   F   F   F
  0.0000000000000000  0.7500000000000000  0.0000000000000000   F   F   F
  0.2500000000000000  0.7500000000000000  0.0000000000000000   F   F   F
  0.5000000000000000  0.7500000000000000  0.0000000000000000   F   F   F
  0.7500000000000000  0.7500000000000000  0.0000000000000000   F   F   F
  0.1666666666666643  0.0833333333333357  0.1000000000000014   F   F   F
  0.4166666666666643  0.0833333333333357  0.1000000000000014   F   F   F
  0.6666666666666643  0.0833333333333357  0.1000000000000014   F   F   F
  0.9166666666666643  0.0833333333333357  0.1000000000000014   F   F   F
  0.1666666666666643  0.3333333333333357  0.1000000000000014   F   F   F
  0.4166666666666643  0.3333333333333357  0.1000000000000014   F   F   F
  0.6666666666666643  0.3333333333333357  0.1000000000000014   F   F   F
  0.9166666666666643  0.3333333333333357  0.1000000000000014   F   F   F
  0.1666666666666643  0.5833333333333357  0.1000000000000014   F   F   F
  0.4166666666666643  0.5833333333333357  0.1000000000000014   F   F   F
  0.6666666666666643  0.5833333333333357  0.1000000000000014   F   F   F
  0.9166666666666643  0.5833333333333357  0.1000000000000014   F   F   F
  0.1666666666666643  0.8333333333333357  0.1000000000000014   F   F   F
  0.4166666666666643  0.8333333333333357  0.1000000000000014   F   F   F
  0.6666666666666643  0.8333333333333357  0.1000000000000014   F   F   F
  0.9166666666666643  0.8333333333333357  0.1000000000000014   F   F   F
  0.0838175946767166  0.1665906396424504  0.1989697479063040   F   F   F
  0.3332601109987863  0.1666691776184592  0.1989522136444677   F   F   F
  0.5837197768529947  0.1668331709510653  0.1979473756141061   F   F   F
  0.8335847143870012  0.1667628143981332  0.1979666040906238   F   F   F
  0.0839341081224632  0.4170610858516639  0.1980005211813278   F   F   F
  0.3330645196671398  0.4155724660025797  0.1983829618937349   F   F   F
  0.5836588119881938  0.4170184546553202  0.1980105339185201   F   F   F
  0.8337378965471345  0.4170033034531286  0.1982039693273165   F   F   F
  0.0839332048424524  0.6670905775695459  0.1979795752830000   F   F   F
  0.3339086584856972  0.6670500134870778  0.1979115144365409   F   F   F
  0.5837910792278080  0.6670303221468785  0.1979748723512884   F   F   F
  0.8335766161618210  0.6670430547695148  0.1980162492940707   F   F   F
  0.0838312444970981  0.9172175898266417  0.1990167884156548   F   F   F
  0.3331811446881829  0.9176639621431590  0.1983479420468228   F   F   F
  0.5838954684393443  0.9169523992877373  0.1979451037940123   F   F   F
  0.8350747406828560  0.9175661522996208  0.1984300415721592   F   F   F
  0.9964927086096864  0.9983319035490581  0.3002319311743378   F   F   F
  0.2532155015347328  0.9981700532811431  0.3000219004558460   F   F   F
  0.5016664483295514  0.0006188397673768  0.2978422744552489   F   F   F
  0.7506048736149893  0.0006284876527118  0.2979826410253352   F   F   F
  0.9995831557175165  0.2519171498239032  0.2976702372174316   F   F   F
  0.2530631962908103  0.2550060270832191  0.3000107192285455   F   F   F
  0.5034641916197486  0.2518435914678605  0.2975900711205313   F   F   F
  0.7511105668703166  0.2507754565856359  0.2979820679140275   F   F   F
  0.0013384877573728  0.5008453416594350  0.2979871862163819   F   F   F
  0.2514156227485813  0.5014007220222609  0.2977984322270899   F   F   F
  0.5013992900212116  0.5013146900036602  0.2978779092081751   F   F   F
  0.7510072663611354  0.5008225519607166  0.2980030574931689   F   F   F
  0.9995291752000242  0.7478556455923453  0.2977706286203272   F   F   F
  0.2514635974596331  0.7504008538872853  0.2978046372154921   F   F   F
  0.5013082240577305  0.7509561433947383  0.2978805458616520   F   F   F
  0.7504509079602499  0.7503709820846467  0.2980382630111436   F   F   F
 
  0.00000000E+00  0.00000000E+00  0.00000000E+00
  0.00000000E+00  0.00000000E+00  0.00000000E+00
  0.00000000E+00  0.00000000E+00  0.00000000E+00
  0.00000000E+00  0.00000000E+00  0.00000000E+00
  0.00000000E+00  0.00000000E+00  0.00000000E+00
  0.00000000E+00  0.00000000E+00  0.00000000E+00
  0.00000000E+00  0.00000000E+00  0.00000000E+00
  0.00000000E+00  0.00000000E+00  0.00000000E+00
  0.00000000E+00  0.00000000E+00  0.00000000E+00
  0.00000000E+00  0.00000000E+00  0.00000000E+00
  0.00000000E+00  0.00000000E+00  0.00000000E+00
  0.00000000E+00  0.00000000E+00  0.00000000E+00
  0.00000000E+00  0.00000000E+00  0.00000000E+00
  0.00000000E+00  0.00000000E+00  0.00000000E+00
  0.00000000E+00  0.00000000E+00  0.00000000E+00
  0.00000000E+00  0.00000000E+00  0.00000000E+00
  0.00000000E+00  0.00000000E+00  0.00000000E+00
  0.00000000E+00  0.00000000E+00  0.00000000E+00
  0.00000000E+00  0.00000000E+00  0.00000000E+00
  0.00000000E+00  0.00000000E+00  0.00000000E+00
  0.00000000E+00  0.00000000E+00  0.00000000E+00
  0.00000000E+00  0.00000000E+00  0.00000000E+00
  0.00000000E+00  0.00000000E+00  0.00000000E+00
  0.00000000E+00  0.00000000E+00  0.00000000E+00
  0.00000000E+00  0.00000000E+00  0.00000000E+00
  0.00000000E+00  0.00000000E+00  0.00000000E+00
  0.00000000E+00  0.00000000E+00  0.00000000E+00
  0.00000000E+00  0.00000000E+00  0.00000000E+00
  0.00000000E+00  0.00000000E+00  0.00000000E+00
  0.00000000E+00  0.00000000E+00  0.00000000E+00
  0.00000000E+00  0.00000000E+00  0.00000000E+00
  0.00000000E+00  0.00000000E+00  0.00000000E+00
  0.00000000E+00  0.00000000E+00  0.00000000E+00
  0.00000000E+00  0.00000000E+00  0.00000000E+00
  0.00000000E+00  0.00000000E+00  0.00000000E+00
  0.00000000E+00  0.00000000E+00  0.00000000E+00
  0.00000000E+00  0.00000000E+00  0.00000000E+00
  0.00000000E+00  0.00000000E+00  0.00000000E+00
  0.00000000E+00  0.00000000E+00  0.00000000E+00
  0.00000000E+00  0.00000000E+00  0.00000000E+00
  0.00000000E+00  0.00000000E+00  0.00000000E+00
  0.00000000E+00  0.00000000E+00  0.00000000E+00
  0.00000000E+00  0.00000000E+00  0.00000000E+00
  0.00000000E+00  0.00000000E+00  0.00000000E+00
  0.00000000E+00  0.00000000E+00  0.00000000E+00
  0.00000000E+00  0.00000000E+00  0.00000000E+00
  0.00000000E+00  0.00000000E+00  0.00000000E+00
  0.00000000E+00  0.00000000E+00  0.00000000E+00
  0.00000000E+00  0.00000000E+00  0.00000000E+00
  0.00000000E+00  0.00000000E+00  0.00000000E+00
  0.00000000E+00  0.00000000E+00  0.00000000E+00
  0.00000000E+00  0.00000000E+00  0.00000000E+00
  0.00000000E+00  0.00000000E+00  0.00000000E+00
  0.00000000E+00  0.00000000E+00  0.00000000E+00
  0.00000000E+00  0.00000000E+00  0.00000000E+00
  0.00000000E+00  0.00000000E+00  0.00000000E+00
  0.00000000E+00  0.00000000E+00  0.00000000E+00
  0.00000000E+00  0.00000000E+00  0.00000000E+00
  0.00000000E+00  0.00000000E+00  0.00000000E+00
  0.00000000E+00  0.00000000E+00  0.00000000E+00
  0.00000000E+00  0.00000000E+00  0.00000000E+00
  0.00000000E+00  0.00000000E+00  0.00000000E+00
  0.00000000E+00  0.00000000E+00  0.00000000E+00
  0.00000000E+00  0.00000000E+00  0.00000000E+00
  0.00000000E+00  0.00000000E+00  0.00000000E+00
