CONTCAR\(7)\(0\0\1)                     
   1.00000000000000     
     8.2045001983999999    0.0000000000000000    0.0000000000000000
    -4.1022500991999999    7.1053055971000001    0.0000000000000000
     0.0000000000000000    0.0000000000000000   26.4547004699999988
   N    Ru
     2    36
Selective dynamics
Direct
  0.4449946222854843  0.2248050121013228  0.3205719374660413   T   T   T
  0.4456143417639420  0.2265067795918062  0.3633329453740959   T   T   T
  0.1079631235920537  0.2221149468647596  0.2411663331745224   T   T   T
  0.4445450171846218  0.2225265876722857  0.2462630166247517   T   T   T
  0.7806894070610868  0.2221104187698813  0.2411749019271869   T   T   T
  0.1110906774011422  0.5555339939315745  0.2412194531231340   T   T   T
  0.4444692220203364  0.5587433455239652  0.2411860362333277   T   T   T
  0.7808587325773801  0.5588312659288770  0.2411776790642144   T   T   T
  0.1081230435230253  0.8859852592971158  0.2411796430677197   T   T   T
  0.4444576894389882  0.8859821060191295  0.2412039391146824   T   T   T
  0.7777972137893153  0.8889540830652676  0.2410906687799327   T   T   T
  0.2218646268588627  0.1109401861772504  0.1621758299734195   T   T   T
  0.5556920963040665  0.1109996367196031  0.1622027612244074   T   T   T
  0.8892847801314816  0.1119334382496562  0.1628406569410626   T   T   T
  0.2230053754518743  0.4436011469385288  0.1618387277956665   T   T   T
  0.5557462831702602  0.4448502223614104  0.1621863338097657   T   T   T
  0.8872521272604480  0.4436463768252872  0.1618345346237978   T   T   T
  0.2230242383141792  0.7794281336384001  0.1618486977285175   T   T   T
  0.5547273651402431  0.7774143669101934  0.1628646982324782   T   T   T
  0.8893232860740865  0.7774367214704304  0.1628472064180771   T   T   T
  0.1111100019999967  0.2222200040000004  0.0813300009999978   F   F   F
  0.4444400069999972  0.2222200040000004  0.0813300009999978   F   F   F
  0.7777799959999996  0.2222200040000004  0.0813300009999978   F   F   F
  0.1111100019999967  0.5555599930000028  0.0813300009999978   F   F   F
  0.4444400069999972  0.5555599930000028  0.0813300009999978   F   F   F
  0.7777799959999996  0.5555599930000028  0.0813300009999978   F   F   F
  0.1111100019999967  0.8888900279999987  0.0813300009999978   F   F   F
  0.4444400069999972  0.8888900279999987  0.0813300009999978   F   F   F
  0.7777799959999996  0.8888900279999987  0.0813300009999978   F   F   F
  0.2222200040000004  0.1111100019999967  0.0000000000000000   F   F   F
  0.5555599930000028  0.1111100019999967  0.0000000000000000   F   F   F
  0.8888900279999987  0.1111100019999967  0.0000000000000000   F   F   F
  0.2222200040000004  0.4444400069999972  0.0000000000000000   F   F   F
  0.5555599930000028  0.4444400069999972  0.0000000000000000   F   F   F
  0.8888900279999987  0.4444400069999972  0.0000000000000000   F   F   F
  0.2222200040000004  0.7777799959999996  0.0000000000000000   F   F   F
  0.5555599930000028  0.7777799959999996  0.0000000000000000   F   F   F
  0.8888900279999987  0.7777799959999996  0.0000000000000000   F   F   F
 
  0.00000000E+00  0.00000000E+00  0.00000000E+00
  0.00000000E+00  0.00000000E+00  0.00000000E+00
  0.00000000E+00  0.00000000E+00  0.00000000E+00
  0.00000000E+00  0.00000000E+00  0.00000000E+00
  0.00000000E+00  0.00000000E+00  0.00000000E+00
  0.00000000E+00  0.00000000E+00  0.00000000E+00
  0.00000000E+00  0.00000000E+00  0.00000000E+00
  0.00000000E+00  0.00000000E+00  0.00000000E+00
  0.00000000E+00  0.00000000E+00  0.00000000E+00
  0.00000000E+00  0.00000000E+00  0.00000000E+00
  0.00000000E+00  0.00000000E+00  0.00000000E+00
  0.00000000E+00  0.00000000E+00  0.00000000E+00
  0.00000000E+00  0.00000000E+00  0.00000000E+00
  0.00000000E+00  0.00000000E+00  0.00000000E+00
  0.00000000E+00  0.00000000E+00  0.00000000E+00
  0.00000000E+00  0.00000000E+00  0.00000000E+00
  0.00000000E+00  0.00000000E+00  0.00000000E+00
  0.00000000E+00  0.00000000E+00  0.00000000E+00
  0.00000000E+00  0.00000000E+00  0.00000000E+00
  0.00000000E+00  0.00000000E+00  0.00000000E+00
  0.00000000E+00  0.00000000E+00  0.00000000E+00
  0.00000000E+00  0.00000000E+00  0.00000000E+00
  0.00000000E+00  0.00000000E+00  0.00000000E+00
  0.00000000E+00  0.00000000E+00  0.00000000E+00
  0.00000000E+00  0.00000000E+00  0.00000000E+00
  0.00000000E+00  0.00000000E+00  0.00000000E+00
  0.00000000E+00  0.00000000E+00  0.00000000E+00
  0.00000000E+00  0.00000000E+00  0.00000000E+00
  0.00000000E+00  0.00000000E+00  0.00000000E+00
  0.00000000E+00  0.00000000E+00  0.00000000E+00
  0.00000000E+00  0.00000000E+00  0.00000000E+00
  0.00000000E+00  0.00000000E+00  0.00000000E+00
  0.00000000E+00  0.00000000E+00  0.00000000E+00
  0.00000000E+00  0.00000000E+00  0.00000000E+00
  0.00000000E+00  0.00000000E+00  0.00000000E+00
  0.00000000E+00  0.00000000E+00  0.00000000E+00
  0.00000000E+00  0.00000000E+00  0.00000000E+00
  0.00000000E+00  0.00000000E+00  0.00000000E+00
