Pt  C  H                                
   1.00000000000000     
     8.4216417639317811    0.0000000000000000    0.0000000000000000
     4.2108208819658905    7.2933557091369128    0.0000000000000000
     0.0000000000000000    0.0000000000000000   21.8762417060484431
   Pt   C    H 
    36     2     5
Selective dynamics
Direct
  0.0000000000000000  0.0000000000000000  0.3428376821200700   F   F   F
  0.3333333333333357  0.0000000000000000  0.3428376821200700   F   F   F
  0.6666666666666643  0.0000000000000000  0.3428376821200700   F   F   F
  0.0000000000000000  0.3333333333333357  0.3428376821200700   F   F   F
  0.3333333333333357  0.3333333333333357  0.3428376821200700   F   F   F
  0.6666666666666643  0.3333333333333357  0.3428376821200700   F   F   F
  0.0000000000000000  0.6666666666666643  0.3428376821200700   F   F   F
  0.3333333333333357  0.6666666666666643  0.3428376821200700   F   F   F
  0.6666666666666643  0.6666666666666643  0.3428376821200700   F   F   F
  0.1111111111111143  0.1111111111111143  0.4476125607066876   F   F   F
  0.4444444444444429  0.1111111111111143  0.4476125607066876   F   F   F
  0.7777777777777786  0.1111111111111143  0.4476125607066876   F   F   F
  0.1111111111111143  0.4444444444444429  0.4476125607066876   F   F   F
  0.4444444444444429  0.4444444444444429  0.4476125607066876   F   F   F
  0.7777777777777786  0.4444444444444429  0.4476125607066876   F   F   F
  0.1111111111111143  0.7777777777777786  0.4476125607066876   F   F   F
  0.4444444444444429  0.7777777777777786  0.4476125607066876   F   F   F
  0.7777777777777786  0.7777777777777786  0.4476125607066876   F   F   F
  0.8878887153737054  0.2237140974608351  0.5508451001990906   T   T   T
  0.2225099075196653  0.2248795919524369  0.5525696140712739   T   T   T
  0.5516247209374967  0.2251176397117760  0.5527378818028268   T   T   T
  0.8882512923309775  0.5569153304764427  0.5510405280211259   T   T   T
  0.2227423377433979  0.5539591751899806  0.5528223371158845   T   T   T
  0.5542043931005196  0.5570301826383712  0.5511058519929435   T   T   T
  0.8878586905492298  0.8903731521873439  0.5509541219972505   T   T   T
  0.2212150770895747  0.8902440748030997  0.5509049131007018   T   T   T
  0.5543411481058342  0.8907805530026209  0.5510783898760749   T   T   T
  0.9974991140631673  0.0030207300980720  0.6560053438448463   T   T   T
  0.3306322627356479  0.0025777083614784  0.6559469395180031   T   T   T
  0.6647062297421371  0.0026763404795034  0.6560943334878573   T   T   T
  0.9972316174855891  0.3363339664240925  0.6559132242954391   T   T   T
  0.3314635700599453  0.3360184899425249  0.6676552726779263   T   T   T
  0.6648610455827253  0.3361594703851338  0.6559656081207734   T   T   T
  0.9973374807895681  0.6700027582975920  0.6560800095407799   T   T   T
  0.3304520128290491  0.6700478262763951  0.6561140531478813   T   T   T
  0.6642242315738827  0.6699593994851227  0.6559524978923648   T   T   T
  0.3231444525878402  0.3292047495468040  0.7633375801293312   T   T   T
  0.4500927689817402  0.3789036639592140  0.7963015982688262   T   T   T
  0.1783003088372652  0.4242322297264352  0.7742899473662490   T   T   T
  0.3551341707359015  0.1883364513688122  0.7734912977574240   T   T   T
  0.4363403302237003  0.3661400424859238  0.8461216241494043   T   T   T
  0.5950316540191238  0.2870278610694825  0.7844753165844551   T   T   T
  0.4165930254989760  0.5207503812203598  0.7872581154583287   T   T   T
 
  0.00000000E+00  0.00000000E+00  0.00000000E+00
  0.00000000E+00  0.00000000E+00  0.00000000E+00
  0.00000000E+00  0.00000000E+00  0.00000000E+00
  0.00000000E+00  0.00000000E+00  0.00000000E+00
  0.00000000E+00  0.00000000E+00  0.00000000E+00
  0.00000000E+00  0.00000000E+00  0.00000000E+00
  0.00000000E+00  0.00000000E+00  0.00000000E+00
  0.00000000E+00  0.00000000E+00  0.00000000E+00
  0.00000000E+00  0.00000000E+00  0.00000000E+00
  0.00000000E+00  0.00000000E+00  0.00000000E+00
  0.00000000E+00  0.00000000E+00  0.00000000E+00
  0.00000000E+00  0.00000000E+00  0.00000000E+00
  0.00000000E+00  0.00000000E+00  0.00000000E+00
  0.00000000E+00  0.00000000E+00  0.00000000E+00
  0.00000000E+00  0.00000000E+00  0.00000000E+00
  0.00000000E+00  0.00000000E+00  0.00000000E+00
  0.00000000E+00  0.00000000E+00  0.00000000E+00
  0.00000000E+00  0.00000000E+00  0.00000000E+00
  0.00000000E+00  0.00000000E+00  0.00000000E+00
  0.00000000E+00  0.00000000E+00  0.00000000E+00
  0.00000000E+00  0.00000000E+00  0.00000000E+00
  0.00000000E+00  0.00000000E+00  0.00000000E+00
  0.00000000E+00  0.00000000E+00  0.00000000E+00
  0.00000000E+00  0.00000000E+00  0.00000000E+00
  0.00000000E+00  0.00000000E+00  0.00000000E+00
  0.00000000E+00  0.00000000E+00  0.00000000E+00
  0.00000000E+00  0.00000000E+00  0.00000000E+00
  0.00000000E+00  0.00000000E+00  0.00000000E+00
  0.00000000E+00  0.00000000E+00  0.00000000E+00
  0.00000000E+00  0.00000000E+00  0.00000000E+00
  0.00000000E+00  0.00000000E+00  0.00000000E+00
  0.00000000E+00  0.00000000E+00  0.00000000E+00
  0.00000000E+00  0.00000000E+00  0.00000000E+00
  0.00000000E+00  0.00000000E+00  0.00000000E+00
  0.00000000E+00  0.00000000E+00  0.00000000E+00
  0.00000000E+00  0.00000000E+00  0.00000000E+00
  0.00000000E+00  0.00000000E+00  0.00000000E+00
  0.00000000E+00  0.00000000E+00  0.00000000E+00
  0.00000000E+00  0.00000000E+00  0.00000000E+00
  0.00000000E+00  0.00000000E+00  0.00000000E+00
  0.00000000E+00  0.00000000E+00  0.00000000E+00
  0.00000000E+00  0.00000000E+00  0.00000000E+00
  0.00000000E+00  0.00000000E+00  0.00000000E+00
