Pt  C  H 
 1.0000000000000000
     8.4216417639317811    0.0000000000000000    0.0000000000000000
     4.2108208819658905    7.2933557091369128    0.0000000000000000
     0.0000000000000000    0.0000000000000000   21.8762417060484431
  36   1   2
Selective dynamics
Cartesian
  0.0000000000000000  0.0000000000000000  7.5000000000000533   F   F   F
  2.8072139213106135  0.0000000000000000  7.5000000000000533   F   F   F
  5.6144278426211676  0.0000000000000000  7.5000000000000533   F   F   F
  1.4036069606553068  2.4311185697123214  7.5000000000000533   F   F   F
  4.2108208819659207  2.4311185697123214  7.5000000000000533   F   F   F
  7.0180348032764748  2.4311185697123214  7.5000000000000533   F   F   F
  2.8072139213105838  4.8622371394245913  7.5000000000000533   F   F   F
  5.6144278426211969  4.8622371394245913  7.5000000000000533   F   F   F
  8.4216417639317509  4.8622371394245913  7.5000000000000533   F   F   F
  1.4036069606553370  0.8103728565707913  9.7920805686827794   F   F   F
  4.2108208819658914  0.8103728565707913  9.7920805686827794   F   F   F
  7.0180348032765041  0.8103728565707913  9.7920805686827794   F   F   F
  2.8072139213106144  3.2414914262830612  9.7920805686827794   F   F   F
  5.6144278426211685  3.2414914262830612  9.7920805686827794   F   F   F
  8.4216417639317811  3.2414914262830612  9.7920805686827794   F   F   F
  4.2108208819659207  5.6726099959953826  9.7920805686827794   F   F   F
  7.0180348032764748  5.6726099959953826  9.7920805686827794   F   F   F
  9.8252487245870874  5.6726099959953826  9.7920805686827794   F   F   F
  8.4329469573771139  1.6144565697377524 12.0502058023296481   T   T   T
  2.8253349422549521  1.6271950354361959 12.0755611685662245   T   T   T
  5.6142527204900539  1.6150002812732287 12.0867745158810731   T   T   T
  9.8346742567435061  4.0519489488430827 12.0593178628420983   T   T   T
  4.2106798488997388  4.0259822379894539 12.0976590262942505   T   T   T
  7.0232715281860738  4.0574014452494840 12.0501649115327272   T   T   T
 11.2103497926534370  6.4876167220329686 12.0984331384853956   T   T   T
  5.6046060830470976  6.4728285502176455 12.0337299222366543   T   T   T
  8.4395656402795538  6.4888905352915698 12.0752989987473587   T   T   T
  4.2262850198998088  7.2889519441790895 14.3567780796171007   T   T   T
  6.9780224726199789  7.2588500352257093 14.3108676355046800   T   T   T
  5.6386563368920539  0.0165471810652453 14.5302774203766027   T   T   T
  1.4333891616166594  2.4377233107562311 14.3591974326818619   T   T   T
  4.2500528792178498  2.4265437145003039 14.5299737711168238   T   T   T
  7.0953435775208078  2.4616565726927777 14.3242810024049874   T   T   T
  2.8311703861765811  4.8624691703448217 14.3745961834856981   T   T   T
  5.6320097557416284  4.8581053716838234 14.3563639611016978   T   T   T
  8.4524053655519182  4.8674137917616198 14.3605271793631353   T   T   T
  4.8867422954963384  1.1883200598097123 16.0276415933268872   T   T   T
  5.6701031516417153  1.6372431307876230 16.6570002172485978   T   T   T
  4.0832250569955839  0.7262180530451808 16.6199799529950525   T   T   T
