Pt  C  H                                
   1.00000000000000     
     8.4216417639317811    0.0000000000000000    0.0000000000000000
     4.2108208819658905    7.2933557091369128    0.0000000000000000
     0.0000000000000000    0.0000000000000000   21.8762417060484431
   Pt   C    H 
    36     2     4
Selective dynamics
Direct
  0.0000000000000000  0.0000000000000000  0.3428376821200700   F   F   F
  0.3333333333333357  0.0000000000000000  0.3428376821200700   F   F   F
  0.6666666666666643  0.0000000000000000  0.3428376821200700   F   F   F
  0.0000000000000000  0.3333333333333357  0.3428376821200700   F   F   F
  0.3333333333333357  0.3333333333333357  0.3428376821200700   F   F   F
  0.6666666666666643  0.3333333333333357  0.3428376821200700   F   F   F
  0.0000000000000000  0.6666666666666643  0.3428376821200700   F   F   F
  0.3333333333333357  0.6666666666666643  0.3428376821200700   F   F   F
  0.6666666666666643  0.6666666666666643  0.3428376821200700   F   F   F
  0.1111111111111143  0.1111111111111143  0.4476125607066876   F   F   F
  0.4444444444444429  0.1111111111111143  0.4476125607066876   F   F   F
  0.7777777777777786  0.1111111111111143  0.4476125607066876   F   F   F
  0.1111111111111143  0.4444444444444429  0.4476125607066876   F   F   F
  0.4444444444444429  0.4444444444444429  0.4476125607066876   F   F   F
  0.7777777777777786  0.4444444444444429  0.4476125607066876   F   F   F
  0.1111111111111143  0.7777777777777786  0.4476125607066876   F   F   F
  0.4444444444444429  0.7777777777777786  0.4476125607066876   F   F   F
  0.7777777777777786  0.7777777777777786  0.4476125607066876   F   F   F
  0.8908118442023536  0.2218316907416735  0.5507430898030350   T   T   T
  0.2241013384549362  0.2234081233812972  0.5518883779006387   T   T   T
  0.5560076165188619  0.2217949853397556  0.5526450098718172   T   T   T
  0.8901195506114874  0.5561002895368716  0.5513498520491709   T   T   T
  0.2241926778543117  0.5518514036034077  0.5532437388777893   T   T   T
  0.5558387794741151  0.5568832276083384  0.5507579703856038   T   T   T
  0.8859849439056902  0.8900429345261927  0.5532941214052229   T   T   T
  0.2215886762902599  0.8875628079173126  0.5498518997451001   T   T   T
  0.5573914779629732  0.8901214010765415  0.5518700576120636   T   T   T
  0.0018814187039453  0.9997366066958122  0.6562379032343060   T   T   T
  0.3303440066424770  0.9954503220105977  0.6537381643534772   T   T   T
  0.6663920020506424  0.0046383270182915  0.6651968880429635   T   T   T
  0.0037087152438744  0.3347472293945444  0.6563496460545650   T   T   T
  0.3403280563426776  0.3313230832010277  0.6651806615178586   T   T   T
  0.6740601161895583  0.3384355196969793  0.6546186236073552   T   T   T
  0.0026521674607309  0.6670545158485197  0.6573215569856075   T   T   T
  0.3352092392476891  0.6665473335028977  0.6561922322119216   T   T   T
  0.6697052661183562  0.6687659519218982  0.6563943958885758   T   T   T
  0.4959441685498689  0.1603370573931926  0.7354038190223164   T   T   T
  0.5687690657439219  0.2310323911285579  0.7847660488463291   T   T   T
  0.4254364144368452  0.0917035147132310  0.7552995391583650   T   T   T
  0.4543824231288056  0.3307668203665273  0.8134694083229661   T   T   T
  0.6435278023138764  0.2981513404778724  0.7673247809878134   T   T   T
  0.6626224246622456  0.1164026281993742  0.8146046206706501   T   T   T
 
  0.00000000E+00  0.00000000E+00  0.00000000E+00
  0.00000000E+00  0.00000000E+00  0.00000000E+00
  0.00000000E+00  0.00000000E+00  0.00000000E+00
  0.00000000E+00  0.00000000E+00  0.00000000E+00
  0.00000000E+00  0.00000000E+00  0.00000000E+00
  0.00000000E+00  0.00000000E+00  0.00000000E+00
  0.00000000E+00  0.00000000E+00  0.00000000E+00
  0.00000000E+00  0.00000000E+00  0.00000000E+00
  0.00000000E+00  0.00000000E+00  0.00000000E+00
  0.00000000E+00  0.00000000E+00  0.00000000E+00
  0.00000000E+00  0.00000000E+00  0.00000000E+00
  0.00000000E+00  0.00000000E+00  0.00000000E+00
  0.00000000E+00  0.00000000E+00  0.00000000E+00
  0.00000000E+00  0.00000000E+00  0.00000000E+00
  0.00000000E+00  0.00000000E+00  0.00000000E+00
  0.00000000E+00  0.00000000E+00  0.00000000E+00
  0.00000000E+00  0.00000000E+00  0.00000000E+00
  0.00000000E+00  0.00000000E+00  0.00000000E+00
  0.00000000E+00  0.00000000E+00  0.00000000E+00
  0.00000000E+00  0.00000000E+00  0.00000000E+00
  0.00000000E+00  0.00000000E+00  0.00000000E+00
  0.00000000E+00  0.00000000E+00  0.00000000E+00
  0.00000000E+00  0.00000000E+00  0.00000000E+00
  0.00000000E+00  0.00000000E+00  0.00000000E+00
  0.00000000E+00  0.00000000E+00  0.00000000E+00
  0.00000000E+00  0.00000000E+00  0.00000000E+00
  0.00000000E+00  0.00000000E+00  0.00000000E+00
  0.00000000E+00  0.00000000E+00  0.00000000E+00
  0.00000000E+00  0.00000000E+00  0.00000000E+00
  0.00000000E+00  0.00000000E+00  0.00000000E+00
  0.00000000E+00  0.00000000E+00  0.00000000E+00
  0.00000000E+00  0.00000000E+00  0.00000000E+00
  0.00000000E+00  0.00000000E+00  0.00000000E+00
  0.00000000E+00  0.00000000E+00  0.00000000E+00
  0.00000000E+00  0.00000000E+00  0.00000000E+00
  0.00000000E+00  0.00000000E+00  0.00000000E+00
  0.00000000E+00  0.00000000E+00  0.00000000E+00
  0.00000000E+00  0.00000000E+00  0.00000000E+00
  0.00000000E+00  0.00000000E+00  0.00000000E+00
  0.00000000E+00  0.00000000E+00  0.00000000E+00
  0.00000000E+00  0.00000000E+00  0.00000000E+00
  0.00000000E+00  0.00000000E+00  0.00000000E+00
